timestamp,revid,parentid,sock,user,page,message
2019-12-17T18:05:56+00:00,931217787,930939440,1,Doctor987654,Hermione Gingold,
2019-12-16T23:19:35+00:00,931097988,911173687,1,Doctor987654,Letitia,/* People */
2019-12-16T22:58:09+00:00,931095804,931095454,1,Doctor987654,User talk:Doctor987654,"/* Hi, what are you talking about? */"
2019-12-16T22:53:39+00:00,931095210,930627423,1,Doctor987654,User talk:Doctor987654,"/* Hi, what are you talking about? */"
2019-12-11T20:45:35+00:00,930341379,930339905,1,Doctor987654,David Bellamy,/* Early and personal life */
2019-12-11T20:27:21+00:00,930339239,930337790,1,Doctor987654,David Bellamy,Personal life info
2019-12-11T20:16:33+00:00,930337665,930336959,1,Doctor987654,David Bellamy,/* Early life */
2019-12-11T20:11:45+00:00,930336959,930334078,1,Doctor987654,David Bellamy,/* Early life */ added info about his early life
2019-12-11T19:02:19+00:00,930327246,930318791,1,Doctor987654,David Bellamy,
2019-12-11T16:59:07+00:00,930312108,930309546,1,Doctor987654,The Pickwick Papers (1952 film),
2019-12-11T16:36:29+00:00,930309546,913891506,1,Doctor987654,The Pickwick Papers (1952 film),
2019-12-11T16:25:26+00:00,930308291,930244296,1,Doctor987654,Hermione Gingold,/* Legacy */
2019-12-11T09:50:25+00:00,930269022,929997877,1,Doctor987654,Nigel Bond,/* Career */ added a source
2019-12-11T09:46:44+00:00,930268718,930264355,1,Doctor987654,Elvis Presley,/* Sam Phillips and Sun Records */ link to song
2019-12-11T09:29:45+00:00,930267378,929651666,1,Doctor987654,User talk:New3400,/* Hello */ new section
2019-12-11T09:23:42+00:00,930266886,930241606,1,Doctor987654,User talk:FlightTime,/* Elvis Presley article */
2019-12-11T09:10:11+00:00,930265058,930239143,1,Doctor987654,Talk:Elvis Presley,/* A recent edit dispute */
2019-12-11T09:01:14+00:00,930264355,930237182,1,Doctor987654,Elvis Presley,"The fact Elvis is used more than once in the same sentence is a moot point, the text had been included in the article for months on end, see the talk page if you wish to contest its inclusion in the article"
2019-12-11T08:45:18+00:00,930262886,853762119,1,Doctor987654,Hermine Stindt,Added a source
2019-12-11T08:12:56+00:00,930260022,930259467,1,Doctor987654,Nigel,/* Notable men named Nigel */
2019-12-11T08:07:11+00:00,930259467,930259320,1,Doctor987654,Nigel,/* Notable men named Nigel */
2019-12-11T08:05:15+00:00,930259320,930258798,1,Doctor987654,Nigel,/* Notable men named Nigel */
2019-12-11T08:00:08+00:00,930258798,930258732,1,Doctor987654,Nigel,Undid revision 930258732 by [[Special:Contributions/Doctor987654|Doctor987654]] ([[User talk:Doctor987654|talk]])
2019-12-11T07:59:21+00:00,930258732,930258696,1,Doctor987654,Nigel,/* Notable men named Nigel */
2019-12-11T07:58:54+00:00,930258696,930258317,1,Doctor987654,Nigel,/* Notable men named Nigel */
2019-12-11T07:54:24+00:00,930258317,930257457,1,Doctor987654,Nigel,/* Notable men named Nigel */
2019-12-11T07:44:04+00:00,930257457,930257287,1,Doctor987654,Nigel,/* Notable men named Nigel */
2019-12-11T07:40:53+00:00,930257287,930245235,1,Doctor987654,Nigel,/* Notable men named Nigel */
2019-12-11T07:35:29+00:00,930256889,930215956,1,Doctor987654,Hermine,/* People */
2019-12-11T05:57:52+00:00,930249096,929783750,1,Doctor987654,Ludwig von Mises,
2019-12-11T05:45:29+00:00,930247996,930237837,1,Doctor987654,User talk:Doctor987654,/* Elvis */
2019-12-11T05:34:10+00:00,930247024,928283520,1,Doctor987654,Hermione Hoby,
2019-12-11T05:11:35+00:00,930245235,929474404,1,Doctor987654,Nigel,/* Notable men named Nigel */  included nationalities
2019-12-11T05:00:51+00:00,930244296,926100544,1,Doctor987654,Hermione Gingold,I’ve added Gingold’s books
2019-12-11T04:37:56+00:00,930242341,930236591,1,Doctor987654,Hermione (given name),Undid revision 930236591 by [[Special:Contributions/FlightTime|FlightTime]] ([[User talk:FlightTime|talk]]) birth and death dates and nationality
2019-12-11T04:36:02+00:00,930242176,930242135,1,Doctor987654,Mia May,
2019-12-11T04:35:39+00:00,930242135,930236522,1,Doctor987654,Mia May,"Birth name, not stage name or nickname (aka)"
2019-12-11T04:29:25+00:00,930241606,930241500,1,Doctor987654,User talk:FlightTime,/* Elvis Presley article */
2019-12-11T04:28:04+00:00,930241500,930239528,1,Doctor987654,User talk:FlightTime,/* Elvis Presley article */
2019-12-11T04:03:18+00:00,930239528,930238585,1,Doctor987654,User talk:FlightTime,/* Elvis Presley article */
2019-12-11T03:58:56+00:00,930239143,930238214,1,Doctor987654,Talk:Elvis Presley,/* A recent edit dispute */
2019-12-11T03:52:41+00:00,930238585,930237813,1,Doctor987654,User talk:FlightTime,/* Elvis Presley article */
2019-12-11T03:45:26+00:00,930237951,930237260,1,Doctor987654,Talk:Elvis Presley,/* A recent edit dispute */
2019-12-11T03:41:41+00:00,930237570,930237019,1,Doctor987654,User talk:FlightTime,/* Elvis Presley article */
2019-12-11T03:38:20+00:00,930237260,927243578,1,Doctor987654,Talk:Elvis Presley,/* A recent edit dispute  */ new section
2019-12-11T03:33:45+00:00,930236853,930236832,1,Doctor987654,User talk:FlightTime,/* Elvis Presley’s article */
2019-12-11T03:33:28+00:00,930236832,930203997,1,Doctor987654,User talk:FlightTime,/* Elvis Presley’s article  */ new section
2019-12-11T03:30:42+00:00,930236574,930236172,1,Doctor987654,Elvis Presley,"Undid revision 930236172 by [[Special:Contributions/FlightTime|FlightTime]] ([[User talk:FlightTime|talk]]) What do you mean by “Nope”? The text had been included in the article for months upon months until the recent edit and there are other singers which are mentioned that way e.g, [[Kylie Minogue]]"
2019-12-11T03:23:39+00:00,930235869,930060136,1,Doctor987654,Elvis Presley,"Undid revision 930060136 by [[Special:Contributions/Andhw|Andhw]] ([[User talk:Andhw|talk]]) rv good faith edit, his full name is used for the title of the article unlike other singers who are known by their first name e.g. Madonna so nothing wrong with pointing it out and using his name twice"
2019-12-11T00:17:31+00:00,930216049,923730661,1,Doctor987654,Mia (given name),/* Given name */
2019-12-11T00:16:36+00:00,930215956,930209673,1,Doctor987654,Hermine,/* People */
2019-12-10T23:27:34+00:00,930210529,918955745,1,Doctor987654,Joe May,
2019-12-10T23:23:12+00:00,930210110,916717903,1,Doctor987654,Mia May,
2019-12-10T23:19:23+00:00,930209673,930209064,1,Doctor987654,Hermine,/* People */
2019-12-10T23:13:01+00:00,930209014,930080511,1,Doctor987654,Hermine,/* People */
2019-12-10T23:05:12+00:00,930208205,923253181,1,Doctor987654,Grandparents' Day,/* History */
2019-12-07T16:53:43+00:00,929699583,929408613,1,Doctor987654,Hermione (given name),/* Fictional characters */
2019-12-06T02:07:37+00:00,929474404,929474284,1,Doctor987654,Nigel,/* Notable men named Nigel */
2019-12-06T02:06:39+00:00,929474284,928627493,1,Doctor987654,Nigel,/* Notable men named Nigel */
2019-12-05T17:05:46+00:00,929408613,928341748,1,Doctor987654,Hermione (given name),/* People */
2019-11-28T01:24:56+00:00,928283759,928283259,1,Doctor987654,Hermione (given name),/* People */
2019-11-28T01:23:03+00:00,928283520,921925269,1,Doctor987654,Hermione Hoby,/* Career */
2019-11-28T01:20:03+00:00,928283259,923904894,1,Doctor987654,Hermione (given name),/* People */
2019-11-28T01:15:04+00:00,928282688,928282023,1,Doctor987654,Talk:Hermione (given name),/* Add someone */
2019-11-28T01:11:19+00:00,928282261,928180168,1,Doctor987654,User talk:CAPTAIN MEDUSA,/* Verify my edit */ new section
2019-11-28T01:08:51+00:00,928282023,925587188,1,Doctor987654,Talk:Hermione (given name),/* Add someone */ new section
2020-02-15T15:56:27+00:00,940936355,940935699,1,Nature987765,Wikipedia:Administrators' noticeboard/Edit warring,/* User:Nature987765 reported by User:FlightTime Phone (Result: ) */
2020-02-15T15:50:48+00:00,940935699,940933746,1,Nature987765,Wikipedia:Administrators' noticeboard/Edit warring,/* User:Nature987765 reported by User:FlightTime Phone (Result: ) */
2020-02-15T15:34:26+00:00,940933746,940930353,1,Nature987765,Wikipedia:Administrators' noticeboard/Edit warring,/* User:Nature987765 reported by User:FlightTime Phone (Result: ) */
2020-02-15T14:33:09+00:00,940926808,940925176,1,Nature987765,Talk:Elvis Presley,/* Also known simply as vs often known simply as */
2020-02-15T14:28:51+00:00,940926384,940915299,1,Nature987765,Wikipedia:Administrators' noticeboard/Edit warring,/* User:Nature987765 reported by User:FlightTime Phone (Result: ) */
2020-02-15T14:17:11+00:00,940925176,940876913,1,Nature987765,Talk:Elvis Presley,/* Also known simply as vs often known simply as */
2020-02-15T04:46:20+00:00,940876383,940875435,1,Nature987765,Wikipedia:Administrators' noticeboard/Edit warring,/* User:Nature987765 reported by User:FlightTime Phone (Result: ) */
2020-02-15T04:44:33+00:00,940876246,940876083,1,Nature987765,Talk:Elvis Presley,/* Also known simply as vs often known simply as */
2020-02-15T04:42:27+00:00,940876083,940875052,1,Nature987765,Talk:Elvis Presley,/* Also known simply as vs often known simply as */
2020-02-15T04:34:17+00:00,940875435,940874877,1,Nature987765,Wikipedia:Administrators' noticeboard/Edit warring,/* User:Nature987765 reported by User:FlightTime Phone (Result: ) */
2020-02-15T04:28:57+00:00,940875052,940873543,1,Nature987765,Talk:Elvis Presley,/* Also known simply as vs often known simply as */
2020-02-15T04:22:59+00:00,940874506,940873789,1,Nature987765,User talk:Nature987765,/* February 2020 */
2020-02-15T04:16:54+00:00,940873753,940872810,1,Nature987765,User talk:Dr.K.,/* Weasel words */
2020-02-15T04:15:06+00:00,940873543,940871779,1,Nature987765,Talk:Elvis Presley,/* Also known simply as vs often known simply as */
2020-02-15T04:12:57+00:00,940873289,940869988,1,Nature987765,Elvis Presley,"Changing ‘also’ to ‘often’ is not the choice of a weasel word. The word ‘also’ means ‘in addition’, when in fact he is often known by his given name. He is commonly/often known simply as Elvis."
2020-02-15T04:08:33+00:00,940872810,939057743,1,Nature987765,User talk:Dr.K.,/* Weasel words  */ new section
2020-02-15T03:58:40+00:00,940871779,940870979,1,Nature987765,Talk:Elvis Presley,/* Also known simply as vs often known simply as */
2020-02-15T03:55:44+00:00,940871416,940869896,1,Nature987765,User talk:FlightTime Phone,"/* “No, it is not” */"
2020-02-15T03:51:55+00:00,940870979,939893648,1,Nature987765,Talk:Elvis Presley,/* Also known simply as vs often known simply as  */ new section
2020-02-15T03:44:15+00:00,940870057,940866340,1,Nature987765,Irena Sendler,
2020-02-15T03:37:52+00:00,940869355,940868900,1,Nature987765,User talk:FlightTime Phone,"/* “No, it is not” */"
2020-02-15T03:35:58+00:00,940869169,940868596,1,Nature987765,Elvis Presley,"Subtle change, but I think “often” is a better word choice"
2020-02-15T03:34:38+00:00,940869017,940489556,1,Nature987765,Kylie Minogue,"There’s no need to confuse things, “known simply as” is enough for the average reader to comprehend."
2020-02-15T03:33:47+00:00,940868900,940868239,1,Nature987765,User talk:FlightTime Phone,"/* “No, it is not” */"
2020-02-15T03:31:26+00:00,940868596,940868453,1,Nature987765,Elvis Presley,Undid revision 940868453 by [[Special:Contributions/Nature987765|Nature987765]] ([[User talk:Nature987765|talk]])
2020-02-15T03:30:20+00:00,940868453,940866142,1,Nature987765,Elvis Presley,Important link to article
2020-02-15T03:24:05+00:00,940867629,940867033,1,Nature987765,User talk:FlightTime Phone,"/* “No, it is not” */"
2020-02-15T03:19:05+00:00,940867033,939790541,1,Nature987765,User talk:FlightTime Phone,"/* “No, it is not” */ new section"
2020-02-15T03:13:01+00:00,940866340,940847651,1,Nature987765,Irena Sendler,To help clarify she was a non-Jewish Pole who helped Jews
2020-02-15T03:11:58+00:00,940866202,940866155,1,Nature987765,Stanisław Krzyżanowski,
2020-02-15T03:11:35+00:00,940866155,940866053,1,Nature987765,Stanisław Krzyżanowski,
2020-02-15T03:10:44+00:00,940866053,940865907,1,Nature987765,Stanisław Krzyżanowski,Infobox already states it
2020-02-15T03:09:39+00:00,940865907,921226443,1,Nature987765,Stanisław Krzyżanowski,
2020-02-15T03:09:07+00:00,940865838,940849350,1,Nature987765,Elvis Presley,Better
2020-02-11T16:18:43+00:00,940280578,940278974,1,Nature987765,Wikipedia:WikiProject Articles for creation/Help desk,"/* 12:10:06, 11 February 2020 review of submission by Nature987765 */"
2020-02-11T15:19:15+00:00,940272913,940267739,1,Nature987765,Wikipedia:WikiProject Articles for creation/Help desk,"/* 12:10:06, 11 February 2020 review of submission by Nature987765 */"
2020-02-11T14:31:56+00:00,940267160,940252678,1,Nature987765,Wikipedia:WikiProject Articles for creation/Help desk,"/* 12:10:06, 11 February 2020 review of submission by Nature987765 */"
2020-02-11T12:10:06+00:00,940251420,940251288,1,Nature987765,Wikipedia:WikiProject Articles for creation/Help desk,
2020-02-11T12:03:17+00:00,940250730,940204992,1,Nature987765,User talk:DGG,/* Draft rejection */ new section
2020-02-10T19:18:24+00:00,940137939,940109932,1,Nature987765,Wikipedia:WikiProject Articles for creation/Help desk,"/* 21:25:32, 9 February 2020 review of draft by Nature987765 */"
2020-02-09T22:37:46+00:00,939990181,939989639,1,Nature987765,Wikipedia:WikiProject Articles for creation/Help desk,"/* 21:25:32, 9 February 2020 review of draft by Nature987765 */"
2020-02-09T22:33:18+00:00,939989639,939988250,1,Nature987765,Wikipedia:WikiProject Articles for creation/Help desk,"/* 21:25:32, 9 February 2020 review of draft by Nature987765 */"
2020-02-09T21:25:32+00:00,939980747,939964850,1,Nature987765,Wikipedia:WikiProject Articles for creation/Help desk,
2020-01-31T18:38:35+00:00,938521142,936925889,1,Nature987765,Ignorance,/* Consequences */
2020-01-31T18:36:40+00:00,938520853,911129613,1,Nature987765,Religious music,/* Islamic music */
2020-01-28T11:50:03+00:00,937980317,937871196,1,Nature987765,Balvinder Sopal,
2020-01-27T21:54:19+00:00,937897453,937896067,1,Nature987765,Iain Dale,
2020-01-27T21:42:55+00:00,937896067,935164820,1,Nature987765,Iain Dale,
2020-01-27T21:39:48+00:00,937895648,937835396,1,Nature987765,Hermione (given name),/* People */
2020-01-27T21:33:33+00:00,937894871,937707336,1,Nature987765,Kelly Rowland,/* Early life */
2020-01-27T21:30:41+00:00,937894446,929671283,1,Nature987765,John Lister-Kaye,Birthplace is in the infobox
2020-01-08T17:16:45+00:00,934814791,934810053,1,Pigeonfan9845135,Elvis Perkins,/* Background */
2020-01-08T16:39:57+00:00,934810053,934809927,1,Pigeonfan9845135,Elvis Perkins,/* Background */
2020-01-08T16:39:11+00:00,934809927,925273773,1,Pigeonfan9845135,Elvis Perkins,
2020-01-08T16:15:15+00:00,934806753,934665487,1,Pigeonfan9845135,Elvis Merzļikins,Birth place and name info
2019-11-27T18:00:22+00:00,928230569,928210073,0,Sbaio,Elvis Merzļikins,Restore + refs
2020-01-06T09:29:08+00:00,934400080,933933055,0,Necrothesp,David Bellamy,"per original; see [[Wikipedia talk:Manual of Style/Biography/2019 archive#Request for comment: Size of post-nominals]]; ""the status quo ante should remain with the template default at 85% but with no prohibition against using a different size. It is also clear that there is no consensus that either size is harmful or otherwise problematic...""; should not be changed from that originally used in the article, which was 100%"
2019-12-20T15:55:39+00:00,931695741,931600764,0,Bender the Bot,David Bellamy,"/* Activism */HTTP → HTTPS for the [[BBC]], replaced: =http://www.bbc.co.uk/ → =https://www.bbc.co.uk/"
2019-12-13T20:49:07+00:00,930633517,930633209,0,Helper201,David Bellamy,
2019-11-09T00:19:20+00:00,925273773,923778781,0,Sun Creator,Elvis Perkins,"/* Recordings */[[WP:AWB/GF|General fixes]], [[WP:AWB/T|typo(s) fixed]]: second season → second-season, song-writer → songwriter, ’s → 's"
2020-01-18T17:27:33+00:00,936406841,936402057,0,Meena,Balvinder Sopal,/* Career */fix
2019-09-18T00:30:48+00:00,916267846,915556622,0,Monkbot,David Bellamy,[[User:Monkbot/task 16: remove replace deprecated dead-url params|Task 16]]: replaced (5×) / removed (0×) deprecated |dead-url= and |deadurl= with |url-status=;
2020-01-27T23:32:07+00:00,937908336,934814791,0,2604:2000:1403:654:C30:3B93:251A:108F,Elvis Perkins,/* Background */
2019-11-27T17:35:25+00:00,928227781,928042718,0,Shadowbryan25,Elvis Presley,
2019-12-29T21:49:03+00:00,933080907,933080776,0,Aipokit,Elvis Presley,
2019-12-09T23:45:28+00:00,930060136,930053594,0,Andhw,Elvis Presley,"Although he is known mononymously by his first name, having his name twice in the first sentence seems a bit needlessly repetitive."
2020-01-17T15:40:38+00:00,936238675,936238533,0,Ravenpuff,Elvis Presley,[[MOS:POSS]]
2020-02-09T01:45:23+00:00,939841329,939835878,0,Ostealthy,Elvis Presley,update 2020 riaa achievements
2020-01-26T02:37:00+00:00,937606578,936966834,0,BrothaTimothy,Elvis Presley,/* Discography */
2019-12-20T07:28:36+00:00,931650723,931240038,0,Coffeeandcrumbs,Elvis Presley,/* Further reading */ fix sources
2019-12-24T03:25:57+00:00,932197427,932197011,0,Esszet,Elvis Presley,/* Childhood in Tupelo */ ???
2020-02-02T11:58:09+00:00,938799426,937606578,0,PrinceAnand2003,Elvis Presley,
2019-12-26T09:30:07+00:00,932494465,932197427,0,DocWatson42,Elvis Presley,Cleaned up references and other matters.
2020-02-05T17:39:59+00:00,939309026,939308609,0,Kgeary007,Elvis Presley,"/* Public image */  formatting Equestrian section removed line break , added new line to book cite"
2019-10-27T10:38:42+00:00,923253181,923253115,0,Gharouni,Grandparents' Day,Undid revision 923253115 by [[Special:Contributions/Gharouni|Gharouni]] ([[User talk:Gharouni|talk]])
2019-12-22T16:56:37+00:00,931981546,931981312,0,Lotje,Grandparents' Day,Filled in 3 bare reference(s) with reFill 2
2019-09-30T13:59:02+00:00,918831138,918829981,0,Leschnei,Hermine,removed Hermione (Harry Potter) and moved [[Steppenwolf (novel)]] to Other
2020-01-15T19:44:30+00:00,935950625,930242341,0,107.77.226.186,Hermione (given name),
2019-11-28T12:49:16+00:00,928341748,928283759,0,CAPTAIN MEDUSA,Hermione (given name),/* People */ add per req
2019-11-14T07:00:11+00:00,926100544,921881684,0,Ser Amantio di Nicolao,Hermione Gingold,Removing from [[Category:English female singers]] using [[c:Help:Cat-a-lot|Cat-a-lot]]
2019-12-16T00:01:11+00:00,930939440,930308291,0,2601:18C:601:EBD0:841F:A9E:B8C5:F6F2,Hermione Gingold,
2019-12-26T03:03:04+00:00,932461630,931738924,0,Wereon,Iain Dale,/* Conservative candidate and blogger */ correct constituency name
2020-02-03T09:28:10+00:00,938942920,938768256,0,Orenburg1,Iain Dale,sp
2020-02-02T06:30:23+00:00,938768256,937897453,0,82.24.215.128,Iain Dale,
2020-01-09T05:43:16+00:00,934906197,934906188,0,Red Phoenix,Ignorance,Reverted edits by [[Special:Contributions/162.208.5.177|162.208.5.177]] ([[User talk:162.208.5.177|talk]]) ([[WP:HG|HG]]) (3.4.9)
2019-12-16T01:45:21+00:00,930953196,930880929,0,24.26.208.149,Irena Sendler,code
2019-12-02T03:01:52+00:00,928859859,928361643,0,CuttlefishJack,Irena Sendler,
2019-12-15T15:53:29+00:00,930880929,928859859,0,142.169.78.78,Irena Sendler,
2019-10-01T02:20:59+00:00,918955745,916612851,0,Ched,Joe May,"Importing Wikidata [[Wikipedia:Short description|short description]]: ""Austrian film director"" ([[User:Galobtter/Shortdesc helper|Shortdesc helper]])"
2019-12-07T11:56:41+00:00,929671283,921897489,0,80.80.178.20,John Lister-Kaye,
2020-01-02T17:15:46+00:00,933716759,932644184,0,Lord Cornwallis,Joe May,/* Partial filmography */
2020-01-22T03:52:29+00:00,936970223,934173644,0,120.17.188.166,Mia (given name),
2019-12-23T20:02:55+00:00,932147355,930564016,0,EricEgo2012,Kelly Rowland,/* Tours */
2019-11-22T15:05:30+00:00,927441584,926681500,0,Rhodes00,Kylie Minogue,"/* Philanthropy */ Well, that picture with Dannii has nothing to do with ""Philanthropy"""
2019-12-13T09:54:15+00:00,930564016,929887154,0,105.224.248.9,Kelly Rowland,
2020-01-07T21:48:58+00:00,934679872,933601330,0,SnapSnap,Kylie Minogue,/* 1968–1986: Early life and career beginnings */ added hyphen
2019-11-17T00:49:41+00:00,926528809,926208228,0,2804:D49:CE1:6A00:B031:2498:71F3:599F,Ludwig von Mises,/* Bibliography */
2020-01-02T17:14:15+00:00,933716529,930281998,0,Lord Cornwallis,Mia May,/* Selected filmography */
2019-12-11T12:18:54+00:00,930281998,930242176,0,Lugnuts,Mia May,
2020-01-07T13:47:20+00:00,934607822,930260022,0,Freezer Bernie,Nigel,/* Medieval figures */ interlang template: English language article needed
2020-02-06T01:25:09+00:00,939369531,939369393,0,2600:1700:FBA0:7180:B53D:D07F:B8:66C2,Nigel,/* Fictional characters */
2020-02-10T01:19:44+00:00,940011478,939846798,0,Nikkimaria,Nigel,rm dup
2019-08-16T18:15:54+00:00,911129613,911129477,0,Epiphyllumlover,Religious music,/* Hymns */ [[Anglican church music#History|Church of England]]
2019-12-27T12:16:57+00:00,932658062,932504418,0,Andygray110,Nigel Bond,
2019-10-14T17:01:49+00:00,921226443,920940860,0,Rodw,Stanisław Krzyżanowski,Disambiguating links to [[German]] (link changed to [[Germany]]) using [[User:Qwertyytrewqqwerty/DisamAssist|DisamAssist]].
2019-11-30T16:12:50+00:00,928627493,928379770,0,Philip Cross,Nigel,/* Fictional characters */ ce
2019-12-20T04:16:56+00:00,931636161,931484820,0,Lowercase sigmabot III,Talk:Elvis Presley,Archiving 1 discussion(s) to [[Talk:Elvis Presley/Archive 33]]) (bot
2019-11-21T05:47:55+00:00,927243578,927234560,0,Ianmacm,Talk:Elvis Presley,/* What made you guy's change your minds? */ re
2020-01-11T12:07:57+00:00,935241305,935239659,0,Aoi,Talk:Elvis Presley,Reverted 1 edit by [[Special:Contributions/109.151.127.18|109.151.127.18]] ([[User talk:109.151.127.18|talk]]) to last revision by Lowercase sigmabot III ([[WP:TW|TW]])
2020-02-03T20:06:56+00:00,939012028,938915288,0,90.193.140.144,Talk:Elvis Presley,/* A recent edit dispute */
2020-02-09T10:41:10+00:00,939893648,939012028,0,Auric,Talk:Elvis Presley,/* Elaine Elizabeth Presley */ new section
2020-02-03T04:17:18+00:00,938915288,938858652,0,Lowercase sigmabot III,Talk:Elvis Presley,Archiving 1 discussion(s) to [[Talk:Elvis Presley/Archive 33]]) (bot
2019-12-22T02:58:27+00:00,931908461,930312108,0,Sc2353,The Pickwick Papers (1952 film),-[[Category:British comedy films]]; -[[Category:Historical comedy films]]; ±[[Category:British historical films]]→[[Category:British historical comedy films]] using [[WP:HC|HotCat]]
2019-11-30T04:28:44+00:00,928568190,928565974,0,Legobot,User talk:DGG,/* Please comment on Talk:Syriac Orthodox Church */ new section
2020-02-01T06:58:35+00:00,938603512,938443469,0,Lowercase sigmabot III,User talk:CAPTAIN MEDUSA,Archiving 3 discussion(s) to [[User talk:CAPTAIN MEDUSA/Archive 6]]) (bot
2019-12-06T06:08:44+00:00,929500009,929401190,0,Lowercase sigmabot III,User talk:CAPTAIN MEDUSA,Archiving 5 discussion(s) to [[User talk:CAPTAIN MEDUSA/Archive 5]]) (bot
2019-12-17T00:24:12+00:00,931107018,931095804,0,New3400,User talk:Doctor987654,"/* Hi, what are you talking about? */"
2020-01-14T19:42:40+00:00,935793170,935782176,0,DGG,User talk:DGG,/* Marty Murphy */
2019-12-07T22:22:23+00:00,929738472,929732453,0,Dr.K.,User talk:Dr.K.,/* Sources in a Lead */  replied
2019-12-04T04:49:50+00:00,929182602,929024783,0,Lowercase sigmabot III,User talk:FlightTime,Archiving 2 discussion(s) to [[User talk:FlightTime/Archive 34]]) (bot
2020-01-26T21:48:35+00:00,937721974,937688722,0,Reaper7,User talk:Dr.K.,/* Removal of entire Theodoros Pangalos controversy section that stood for 10 years fully referenced */
2019-11-29T06:42:21+00:00,928445959,928302775,0,Dr.K.,User talk:Dr.K.,/* An editor removing Ancient Greek diacritics */ ty
2020-01-23T16:48:15+00:00,937210746,936993056,0,Muddocktor,User talk:FlightTime,/* A message from {{subst:currentuser}} */ new section
2019-12-27T05:05:49+00:00,932615961,932560502,0,Lowercase sigmabot III,User talk:FlightTime,Archiving 1 discussion(s) to [[User talk:FlightTime/Archive 34]]) (bot
2019-12-24T04:39:47+00:00,932204922,932106443,0,Lowercase sigmabot III,User talk:FlightTime,Archiving 2 discussion(s) to [[User talk:FlightTime/Archive 34]]) (bot
2020-01-09T02:33:08+00:00,934887663,934887652,0,FlightTime,User talk:FlightTime,[[User:Equazcion/OneClickArchiver|OneClickArchiver]] archived [[Special:Diff/934887661|So...]] to [[User talk:FlightTime/Archive 34#So...|User talk:FlightTime/Archive 34]]
2020-02-08T22:38:31+00:00,939819107,939819032,0,FlightTime,User talk:FlightTime,
2020-02-04T02:32:50+00:00,939057743,937721974,0,Dr.K.,User talk:Dr.K.,ce
2019-12-12T23:50:19+00:00,930506798,930506759,0,FlightTime,User talk:FlightTime,
2020-01-01T18:42:34+00:00,933555158,933553031,0,FlightTime,User talk:FlightTime,[[User:Equazcion/OneClickArchiver|OneClickArchiver]] archived [[Special:Diff/933555155|2 Paul Simon]] to [[User talk:FlightTime/Archive 34#2 Paul Simon|User talk:FlightTime/Archive 34]]
2020-01-04T19:14:22+00:00,934096234,933690140,0,99.232.235.205,User talk:FlightTime,
2019-12-20T19:28:56+00:00,931723106,931573803,0,Gnaxywa,User talk:FlightTime,/* Stone Sour Timeline */ new section
2020-01-31T04:42:44+00:00,938435833,938275942,0,Lowercase sigmabot III,User talk:FlightTime,Archiving 1 discussion(s) to [[User talk:FlightTime/Archive 34]]) (bot
2019-12-08T04:40:51+00:00,929778679,929182602,0,Lowercase sigmabot III,User talk:FlightTime,Archiving 1 discussion(s) to [[User talk:FlightTime/Archive 34]]) (bot
2020-01-22T02:27:20+00:00,936960963,936960903,0,FlightTime,User talk:FlightTime Phone,added [[Category:Wikipedia rollbackers]] using [[WP:HC|HotCat]]
2020-02-08T19:06:06+00:00,939790541,936960963,0,FlightTime,User talk:FlightTime Phone,Adjust
2019-12-15T04:15:39+00:00,930820064,930755874,0,FlightTime Phone,User talk:FlightTime Phone,[[User:Equazcion/OneClickArchiver|OneClickArchiver]] archived [[Special:Diff/930820063|TheIndian144]] to [[User talk:FlightTime Phone/Archive 1#TheIndian144|User talk:FlightTime Phone/Archive 1]]
2019-11-25T22:49:56+00:00,927964919,927912008,0,New3400,User talk:New3400,/* Is repeating articles bad? */
2019-11-29T03:54:51+00:00,928433376,928433296,0,Santasa99,Wikipedia:Administrators' noticeboard/Edit warring,/* User:Santasa99 reported by User:Ceha */
2020-01-03T23:26:02+00:00,933959580,933893990,0,SuggestBot,User talk:New3400,SuggestBot recommends these articles...
2020-01-13T01:16:06+00:00,935513060,935512974,0,Alex 21,Wikipedia:Administrators' noticeboard/Edit warring,/* User:46.226.190.219 reported by User:Alex 21 (Result: ) */ Note...
2020-02-05T09:25:18+00:00,939256458,939238182,0,Jeff5102,Wikipedia:Administrators' noticeboard/Edit warring,/* User:Horse Eye Jack reported by User:CaradhrasAiguo (Result: no violation) */
2020-01-15T01:16:42+00:00,935835755,935835422,0,MelanieN,Wikipedia:Administrators' noticeboard/Edit warring,/* User:86.8.200.94 reported by User:DIYeditor (Result: ) */
2019-12-09T14:44:19+00:00,929990144,929979411,0,KyleJoan,Wikipedia:Administrators' noticeboard/Edit warring,/* User:Krimuk2.0 reported by User:KyleJoan (Result: Both warned) */
2019-12-18T22:36:30+00:00,931439030,931382402,0,Semsûrî,Wikipedia:Administrators' noticeboard/Edit warring,/* User: Paradise Chronicle reported by User:175.203.103.219 (Result: ) */
2019-12-24T00:16:59+00:00,932179679,932177872,0,M2sh22pp1l,Wikipedia:Administrators' noticeboard/Edit warring,/* User:Bacondrum reported by User:Springee (Result: Warned) */
2020-02-07T01:49:41+00:00,939534616,939534263,0,Psychologist Guy,Wikipedia:Administrators' noticeboard/Edit warring,/* User:Psychologist Guy reported by User:Mr. Vernon (Result: Pages protected) */
2019-12-19T19:06:10+00:00,931574651,931572426,0,Bbb23,Wikipedia:Administrators' noticeboard/Edit warring,/* User:Theofilos1964 reported by User:Escape Orbit (Result: ) */ sock indeffed
2019-12-13T03:46:19+00:00,930532436,930531215,0,SchroCat,Wikipedia:Administrators' noticeboard/Edit warring,/* User:Morton Thiokol reported by User:SchroCat (Result: ) */
2020-01-01T18:05:17+00:00,933549795,933548403,0,Bastun,Wikipedia:Administrators' noticeboard/Edit warring,/* User:Barumba reported by User:Bastun (Result: ) */ r
2020-01-10T06:28:35+00:00,935062904,935062448,0,U-Mos,Wikipedia:Administrators' noticeboard/Edit warring,/* User:Fona2000 reported by User:U-Mos (Result: ) */
2020-01-15T23:57:55+00:00,935982716,935982496,0,CaptainEek,Wikipedia:WikiProject Articles for creation/Help desk,"/* 21:22:29, 15 January 2020 review of submission by COIweizhou */ Replying to COIweizhou (using [[w:en:User:Enterprisey/reply-link|reply-link]])"
2020-01-23T03:41:23+00:00,937133622,937132875,0,Scsbot,Wikipedia:WikiProject Articles for creation/Help desk,edited by robot:\narchiving January 17
2019-12-25T14:30:13+00:00,932386327,932386279,0,AnuYog,Wikipedia:WikiProject Articles for creation/Help desk,"/* 14:27:22, 25 December 2019 review of draft by AnuYog */"
2019-12-24T09:41:54+00:00,932231220,932224924,0,Alex Noble,Wikipedia:WikiProject Articles for creation/Help desk,"/* 15:48:07, 23 December 2019 review of submission by Manojtaliyan2002 */ Replying to Manojtaliyan2002 (using [[w:en:User:Enterprisey/reply-link|reply-link]])"
2019-12-08T02:56:24+00:00,929768122,929765096,0,Mdsjm,Wikipedia:WikiProject Articles for creation/Help desk,"/* 01:16:22, 8 December 2019 review of draft by Mdsjm */"
2019-12-25T02:06:47+00:00,932327809,932324679,0,Worldbruce,Wikipedia:WikiProject Articles for creation/Help desk,"/* 13:31:07, 24 December 2019 review of draft by Ronmun */ re"
2020-01-29T18:07:32+00:00,938194999,938194111,0,Shoy,Wikipedia:WikiProject Articles for creation/Help desk,"/* 11:28:24, 29 January 2020 review of submission by ABRG72 */ indent"
2019-12-18T21:43:47+00:00,931431746,931427023,0,HLHJ,Wikipedia:WikiProject Articles for creation/Help desk,
2020-01-09T06:19:38+00:00,934909124,934908813,0,CaptainEek,Wikipedia:WikiProject Articles for creation/Help desk,"/* 02:09:39, 9 January 2020 review of submission by Monmouth1946 */ Replying to Monmouth1946 (using [[w:en:User:Enterprisey/reply-link|reply-link]])"
2020-01-03T16:43:20+00:00,933898691,933898165,0,Iam brayann,Wikipedia:WikiProject Articles for creation/Help desk,
2019-11-30T00:13:03+00:00,928544603,928543590,0,Scsbot,Wikipedia:WikiProject Articles for creation/Help desk,edited by robot:\narchiving November 24
2020-01-10T05:27:59+00:00,935057951,935037576,0,Aashishlowanshi,Wikipedia:WikiProject Articles for creation/Help desk,
2019-12-28T01:43:57+00:00,932759806,932746201,0,Scsbot,Wikipedia:WikiProject Articles for creation/Help desk,edited by robot:\nadding date header(s)
2020-02-13T18:07:36+00:00,940629603,940627295,0,Sulfurboy,Wikipedia:WikiProject Articles for creation/Help desk,"/* Request on 17:43:40, 13 February 2020 for assistance on AfC submission by Musicvideogod */"
2020-01-14T03:01:45+00:00,935686929,935683053,0,Worldbruce,Wikipedia:WikiProject Articles for creation/Help desk,"/* 05:32:44, 13 January 2020 rejection of submission by Heartfox */ re"
2020-01-19T00:46:52+00:00,936460805,936459558,0,Scsbot,Wikipedia:WikiProject Articles for creation/Help desk,edited by robot:\narchiving January 13
2019-09-13T23:58:16+00:00,915556622,915413553,0,GreenC bot,David Bellamy,Move 1 url (for [[Wikipedia:Link rot/cases/chartarchive.org and chartstats.com|chartstats.com]]). [[User:GreenC/WaybackMedic_2.5|Wayback Medic 2.5]]
2019-09-03T02:30:51+00:00,913766880,909157605,0,GreenC bot,David Bellamy,Restore 1 cite deleted by a bug in VisualEditor ([[User:GreenC_bot/Job_18|vebug bot]])
2020-01-03T20:26:54+00:00,933933055,931695741,0,176.252.58.200,David Bellamy,
2019-10-24T14:42:46+00:00,922819088,921177621,0,John of Reading,Elvis Merzļikins,"/* Switzerland */Typo fixing, replaced: Leagues best → League's best"
2019-10-14T11:03:55+00:00,921177621,920938164,0,Bellowhead678,Elvis Merzļikins,enojoyed->enjoyed - [[Wikipedia:Correct typos in one click|Fix a typo in one click]]
2020-01-20T09:16:35+00:00,936676572,936533303,0,Ho-ju-96,Elvis Merzļikins,/* International */
2019-11-11T16:40:43+00:00,925676699,925676460,0,KylieTastic,Elvis Merzļikins,rvt to last image
2019-09-26T03:55:19+00:00,917921803,917386720,0,Thegoldenconciseencyclopediaofmammals,Elvis Presley,/* Racial issues */
2019-10-02T00:41:39+00:00,919132747,917921803,0,Rich Farmbrough,Elvis Presley,/* Further reading */clean up
2019-10-25T13:22:43+00:00,922967952,922138801,0,HellsKitchen234,Elvis Presley,
2019-08-23T21:30:47+00:00,912196896,912188864,0,MysticKnights,Elvis Presley,Updated Categories
2019-12-17T20:42:54+00:00,931240038,930268718,0,InternetArchiveBot,Elvis Presley,Bluelinking 4 books for [[WP:V|verifiability]].) #IABot (v2.1alpha3
2019-08-26T11:10:41+00:00,912551582,912551434,0,Mazewaxie,Elvis Presley,cleaned up.
2019-09-17T17:04:15+00:00,916210218,916192776,0,Laser brain,Elvis Presley,Reverted 1 edit by [[Special:Contributions/Aronanki|Aronanki]] ([[User talk:Aronanki|talk]]): We don't provide coverage of fringe theories and literature ([[WP:TW|TW]])
2019-08-31T17:37:44+00:00,913368429,913368111,0,MagicatthemovieS,Elvis Presley,/* Childhood in Tupelo */ The Presley family currently displays a Star of David on Glady's tombstone and makes reference to Presley's Jewish ancestry within Graceland
2019-09-11T04:44:22+00:00,915089191,914129838,0,RL0919,Elvis Presley,/* Further reading */citation cleanup and other fixes
2020-01-29T15:20:11+00:00,938171228,938171209,0,DatGuy,Grandparents' Day,Reverted edits by [[Special:Contributions/194.56.199.216|194.56.199.216]] ([[User talk:194.56.199.216|talk]]) ([[WP:HG|HG]]) (3.4.9)
2020-01-06T21:19:23+00:00,934494989,933080907,0,Alistair1978,Elvis Presley,typo (via [[WP:JWB]])
2019-09-05T11:26:25+00:00,914129838,913677171,0,Vasan20,Elvis Presley,
2019-09-03T23:23:16+00:00,913905392,912557274,0,Prhgaskey,Grandparents' Day,/* Music of the U.S. National Grandparents Day */
2019-10-18T14:20:02+00:00,921881684,921831447,0,Gaius Cornelius,Hermione Gingold,Fix typo and tidy.
2019-10-04T02:16:46+00:00,919501670,914714878,0,Strudjum,Hermione Gingold,/* References */Deleted coding to allow auto-formatting
2019-09-29T09:20:37+00:00,918570625,911623921,0,MurielMary,Hermione (given name),/* People */
2020-01-10T22:20:33+00:00,935164820,932461630,0,Extended Cut,Iain Dale,
2019-10-19T00:29:18+00:00,921961903,919806790,0,86.169.223.214,Iain Dale,
2019-10-31T15:06:17+00:00,923904894,918570625,0,37.117.32.18,Hermione (given name),/* Variations */
2019-10-05T11:54:38+00:00,919726514,919675940,0,Path slopu,Ignorance,Reverted 1 edit by [[Special:Contributions/108.39.167.207|108.39.167.207]] identified as test/vandalism using [[WP:STiki|STiki]]
2019-12-20T21:42:33+00:00,931738924,931738818,0,CLCStudent,Iain Dale,Reverted edits by [[Special:Contribs/Hidingeyes|Hidingeyes]] ([[User talk:Hidingeyes|talk]]) to last version by Hamish Alexander
2019-11-27T07:30:16+00:00,928168703,927816072,0,82.69.118.203,Iain Dale,/* Conservative candidate and blogger */Wording improvement.
2019-08-09T11:23:26+00:00,910057520,909672920,0,Headhitter,Iain Dale,added [[Category:West Ham United F.C.]] using [[WP:HC|HotCat]]
2019-10-23T08:52:29+00:00,922625165,922623518,0,El C,Ignorance,Reverted edits by [[Special:Contribs/176.74.158.237|176.74.158.237]] ([[User talk:176.74.158.237|talk]]) to last version by Path slopu
2019-02-24T16:04:09+00:00,884873921,880394932,0,78.151.157.26,Hermione Gingold,/* Post-war */
2019-08-08T04:56:24+00:00,909872023,909871840,0,73.221.210.100,Ignorance,Reverted last change. Objectual is a specialized term. OK in this context.
2020-01-24T01:12:47+00:00,937283365,937111505,0,Orczar,Irena Sendler,"What she is ""most famous for"" is fake information and the article deals with it."
2019-12-27T10:06:38+00:00,932644184,930236433,0,Cobaltcigs,Joe May,cleanup
2019-07-28T00:13:06+00:00,908178013,908174306,0,154.160.30.111,John Lister-Kaye,Minor rewordings for objectivity/neutrality
2019-10-18T16:32:43+00:00,921897489,908178013,0,PohranicniStraze,John Lister-Kaye,removed honorific per [[WP:HON]]
2019-08-29T16:14:25+00:00,913057622,913056130,0,Geraldo Perez,Kelly Rowland,found alternative
2019-12-03T05:25:59+00:00,929027594,928341965,0,Mooper2,Kelly Rowland,
2019-12-31T19:03:52+00:00,933405780,932684411,0,Chrishm21,Kylie Minogue,/* 2017–present: Golden and Step Back in Time */
2019-09-25T01:59:07+00:00,917703885,917703690,0,Nicholas0,Kelly Rowland,"""Since"" + present perfect"
2019-08-26T05:18:55+00:00,912524062,912352199,0,5 albert square,Kelly Rowland,"Importing Wikidata [[Wikipedia:Short description|short description]]: ""American singer, songwriter, actress"" ([[User:Galobtter/Shortdesc helper|Shortdesc helper]])"
2019-11-15T00:54:51+00:00,926227806,926167519,0,152.32.101.229,Kelly Rowland,
2019-12-22T23:04:01+00:00,932024701,932024682,0,Funplussmart,Mia (given name),Reverted 1 edit by [[Special:Contributions/2601:CF:8100:56:899F:4B4E:C88E:F5E9|2601:CF:8100:56:899F:4B4E:C88E:F5E9]] ([[User talk:2601:CF:8100:56:899F:4B4E:C88E:F5E9|talk]]): No linked article ([[WP:TW|TW]])
2019-08-28T07:56:29+00:00,912848452,912848186,0,Neighborhood Review,Ludwig von Mises,/* Bibliography */  link
2020-02-01T06:40:16+00:00,938602274,938601937,0,Hedviberit,Ludwig von Mises,/* Early life */
2019-10-30T12:40:37+00:00,923730661,923730620,0,Jdcomix,Mia (given name),Reverted edits by [[Special:Contribs/5.148.83.98|5.148.83.98]] ([[User talk:5.148.83.98|talk]]) to last version by OwenBlacker
2019-12-18T11:08:36+00:00,931347973,930216049,0,Fertejol,Mia (given name),
2019-11-14T22:00:38+00:00,926208228,925839045,0,InternetArchiveBot,Ludwig von Mises,Bluelink 2 books for [[WP:V|verifiability]].) #IABot (v2.0) ([[User:GreenC bot|GreenC bot]]
2019-10-26T09:25:26+00:00,923093292,923092999,0,JJMC89 bot III,Ludwig von Mises,Moving [[:Category:Austrian political theorists]] to [[:Category:Austrian political philosophers]] per [[Wikipedia:Categories for discussion/Log/2019 October 17#Category:Political theorists]]
2019-10-03T19:35:43+00:00,919444089,919443847,0,Nigej,Nigel,Undid revision 919443847 by [[Special:Contributions/216.158.188.127|216.158.188.127]] ([[User talk:216.158.188.127|talk]])
2019-08-29T07:29:45+00:00,913001847,906928904,0,Roidroid,Nigel,"Because of the Australian colloquial term, adding both [[Category:Slang]] [[Category:Pejorative terms for people]]"
2019-11-12T11:35:38+00:00,925799472,925799456,0,Flyer22 Frozen,Nigel,Reverted edits by [[Special:Contributions/167.98.46.99|167.98.46.99]] ([[User talk:167.98.46.99|talk]]) ([[WP:HG|HG]]) (3.4.9)
2019-11-27T07:53:30+00:00,928171354,925820036,0,Piotras18,Nigel Bond,
2019-08-17T10:54:27+00:00,911218897,909747093,0,Catb2006,Nigel Bond,/* Performance and rankings timeline */
2019-11-12T14:47:42+00:00,925820036,924427881,0,Catb2006,Nigel Bond,/* Performance and rankings timeline */
2019-08-12T11:17:36+00:00,910481797,870047788,0,Tewje,Stanisław Krzyżanowski,Correcting a mistake
2019-09-16T16:50:19+00:00,916034622,916027818,0,Kuyabribri,Talk:Elvis Presley,/* Semi-protected edit request on 16 September 2019 */ re
2019-09-05T18:48:14+00:00,914191710,914191436,0,Musdan77,Talk:Elvis Presley,"/* J.D. Sumner & The StampsMusdan77 (talk) 18:47, 5 September 2019 (UTC) */"
2019-09-09T14:13:02+00:00,914811050,914810880,0,Laser brain,Talk:Elvis Presley,rm troll garbage
2019-09-03T21:24:16+00:00,913891506,884095590,0,Beryl reid fan,The Pickwick Papers (1952 film),Adding link.
2020-01-23T06:43:39+00:00,937150585,937148040,0,Taavi,User talk:CAPTAIN MEDUSA,/* Regarding EFFPR */ reply
2019-11-04T16:47:30+00:00,924564476,924497472,0,MediaWiki message delivery,User talk:CAPTAIN MEDUSA,/* Tech News: 2019-45 */ new section
2019-11-19T18:34:22+00:00,926995645,926916928,0,Renamed user U1krw4txwPvuEp3lqV382vOcqa7,User talk:CAPTAIN MEDUSA,Talkback ([[:User talk:Kautilya3#Nepali_TV]]) (TW)
2019-10-09T09:45:28+00:00,920367374,920365920,0,Demetrius Phalerum,User talk:DGG,thanks
2020-01-09T04:00:26+00:00,934897316,934868604,0,HasteurBot,User talk:DGG,[[Wikipedia:Bots/Requests for approval/HasteurBot 9|HasteurBot 9]]: G13 Eligibility notices to interested editor
2019-09-16T06:22:40+00:00,915960101,915059932,0,Mad Bunny,User talk:Dr.K.,/* Rolex Revert */ new section
2019-08-22T00:33:36+00:00,911914180,911913486,0,2 Lit 2 Late,User talk:FlightTime,/* A message from Iambacknimbetter */Added content.
2019-11-16T05:58:46+00:00,926413710,926400418,0,WilyD,User talk:FlightTime,Misuse of twinkle
2019-10-23T06:26:42+00:00,922612319,922612301,0,Bonadea,User talk:FlightTime,Reverted edits by [[Special:Contribs/NJA could N0T got LAlD by ProcxyB0T|NJA could N0T got LAlD by ProcxyB0T]] ([[User talk:NJA could N0T got LAlD by ProcxyB0T|talk]]) to last version by FlightTime
2020-01-18T02:25:00+00:00,936323801,936319717,0,Lilbluekoala,User talk:FlightTime,/* A message from {{subst:currentuser}} */ new section
2019-09-09T09:14:27+00:00,914774416,914774378,0,Jeppiz,Wikipedia:Administrators' noticeboard/Edit warring,/* User:Bmarashian03 reported by User:AbhiMukh97 (Result: ) */
2020-02-11T12:06:42+00:00,940251069,940242517,0,Guy Macon,Wikipedia:Administrators' noticeboard/Edit warring,"/* User:Gogolwold reported by User:Mr Ernie (Result: ) */ It is impossible to be ""in violation of BRD"". as it says at the top of that page, ""This page is not one of Wikipedia's policies or guidelines, as it has not been thoroughly vetted by the community"" The relevant policy is at [[WP:EW]]."
2019-09-25T13:00:51+00:00,917778975,917777188,0,Galatz,Wikipedia:Administrators' noticeboard/Edit warring,/* User:WrestlerHelper3 reported by [[User:Galatz]] (Result: ) */
2019-09-16T06:42:22+00:00,915962198,915961675,0,Generic515,Wikipedia:Administrators' noticeboard/Edit warring,
2020-01-29T04:32:36+00:00,938108224,938102311,0,EdJohnston,Wikipedia:Administrators' noticeboard/Edit warring,/* User:Authordom reported by User:Padavalamkuttanpilla (Result: Blocked) */ Closing
2019-08-17T06:55:32+00:00,911198811,911179197,0,Mkativerata,Wikipedia:Administrators' noticeboard/Edit warring,Adding new report for [[Special:Contributions/S. M. Nazmus Shakib|S. M. Nazmus Shakib]]. ([[WP:TW|TW]])
2019-12-30T17:00:24+00:00,933217420,933214486,0,Bradford,Wikipedia:Administrators' noticeboard/Edit warring,"Unnecessary, it was my error."
2019-11-13T18:21:55+00:00,926008953,926008223,0,Migsmigss,Wikipedia:Administrators' noticeboard/Edit warring,/* User:88.217.152.166 reported by User:RockingGeo (Result: ) */
2020-01-28T10:09:08+00:00,937971207,937966069,0,Padavalamkuttanpilla,Wikipedia:Administrators' noticeboard/Edit warring,dif a
2019-08-16T18:35:10+00:00,911131912,911093054,0,Incnis Mrsi,Wikipedia:Administrators' noticeboard/Edit warring,/* User:WhiteStarG7 reported by User:Incnis Mrsi (Result: ) */ new section
2019-10-08T09:13:20+00:00,920209903,920209821,0,Fylindfotberserk,Wikipedia:Administrators' noticeboard/Edit warring,/* User:Jeduzzz reported by User:Fylindfotberserk (Result: ) */
2019-10-11T23:24:47+00:00,920801633,920794785,0,Mitchellhobbs,Wikipedia:Administrators' noticeboard/Edit warring,
2019-08-28T05:04:48+00:00,912833602,912824510,0,Peacemaker67,Wikipedia:Administrators' noticeboard/Edit warring,/* User:QuestFour reported by User:SanAnMan (Result: ) */ both warned
2020-02-02T08:14:27+00:00,938779485,938773798,0,Migsmigss,Wikipedia:Administrators' noticeboard/Edit warring,Adding content
2020-02-03T01:19:56+00:00,938894852,938892238,0,El C,Wikipedia:Administrators' noticeboard/Edit warring,/* User:Ahendra reported by User:Wikaviani (Result: 24 hours) */ switched to [[WP:PB|partial block]] from sitewide with apologies
2019-10-19T13:28:07+00:00,922031344,922026599,0,Tonk111,Wikipedia:Administrators' noticeboard/Edit warring,/* User:Tonk111 reported by User:Harshil169 (Result: ) */
2020-01-18T16:58:08+00:00,936403159,936362455,0,Adam9007,Wikipedia:Administrators' noticeboard/Edit warring,Adding new report for [[Special:Contributions/2A02:C7F:1CB7:EB00:C4C8:DD3F:7D21:2E1B|2A02:C7F:1CB7:EB00:C4C8:DD3F:7D21:2E1B]]. ([[WP:TW|TW]])
2019-10-12T21:50:10+00:00,920943871,920918377,0,FossilDS,Wikipedia:WikiProject Articles for creation/Help desk,
2019-11-30T03:34:31+00:00,928563802,928544603,0,Ndcrevolution,Wikipedia:WikiProject Articles for creation/Help desk,
2019-12-23T17:45:58+00:00,932132626,932132239,0,Zipster969,Wikipedia:WikiProject Articles for creation/Help desk,
2019-08-27T22:04:07+00:00,912792424,912789552,0,Nosebagbear,Wikipedia:WikiProject Articles for creation/Help desk,"/* 20:39:46, 27 August 2019 review of draft by Joelclyne */   re"
2019-09-07T22:21:15+00:00,914517651,914517248,0,Nosebagbear,Wikipedia:WikiProject Articles for creation/Help desk,"/* 16:53:06, 7 September 2019 review of submission by RobHewes */  re"
2019-11-30T16:00:51+00:00,928626120,928616997,0,Bsseifer,Wikipedia:WikiProject Articles for creation/Help desk,
2020-01-11T21:58:08+00:00,935312090,935303608,0,MortgageGuru23,Wikipedia:WikiProject Articles for creation/Help desk,
2020-01-29T00:15:28+00:00,938078007,938068352,0,Hellknowz,Wikipedia:WikiProject Articles for creation/Help desk,"/* 23:05:51, 28 January 2020 review of submission by Ylevental */ re"
2019-11-12T15:50:42+00:00,925827854,925822910,0,Curb Safe Charmer,Wikipedia:WikiProject Articles for creation/Help desk,"/* 08:27:33, 12 November 2019 review of submission by Juanestebanp94 */ reply"
2019-08-17T20:27:25+00:00,911280422,911255593,0,Everyonegoes2018,Wikipedia:WikiProject Articles for creation/Help desk,"/* 15:33:23, 17 August 2019 review of submission by Everyonegoes2018 */"
2019-09-21T21:48:34+00:00,917018653,917003162,0,Kikiramomobami,Wikipedia:WikiProject Articles for creation/Help desk,
2019-09-15T13:29:17+00:00,915814902,915773046,0,Nosebagbear,Wikipedia:WikiProject Articles for creation/Help desk,"/* 11:51:55, 14 September 2019 review of submission by Smehra2801 */  re"
2020-02-10T04:55:24+00:00,940040077,940017642,0,Dileshwar Singh Patil,Wikipedia:WikiProject Articles for creation/Help desk,
2019-11-27T04:31:51+00:00,928153070,928150573,0,Georgy Panicker,Wikipedia:WikiProject Articles for creation/Help desk,
2019-11-15T22:19:34+00:00,926368358,926356440,0,Tedfmyers,Wikipedia:WikiProject Articles for creation/Help desk,
2020-01-16T16:25:17+00:00,936083712,936082541,0,Veraluciaobrigado,Wikipedia:WikiProject Articles for creation/Help desk,
2020-02-11T18:08:12+00:00,940295350,940294112,0,331dot,Wikipedia:WikiProject Articles for creation/Help desk,"/* 02:39:37, 11 February 2020 review of draft by Monsieur Nam */ reply"
2019-12-21T10:01:23+00:00,931805000,931804919,0,Hellknowz,Wikipedia:WikiProject Articles for creation/Help desk,"/* 09:51:56, 21 December 2019 review of submission by 42.110.142.141 */ re"
2019-09-25T16:04:58+00:00,917810040,917787944,0,Yourepartofit,Wikipedia:WikiProject Articles for creation/Help desk,
2019-09-27T18:26:10+00:00,918244729,918244418,0,NotTheFakeJTP,Wikipedia:WikiProject Articles for creation/Help desk,"/* 13:39:19, 27 September 2019 review of submission by Mojapelo Neo */"
2019-11-25T09:05:08+00:00,927871968,927869231,0,Aliso4ka2013,Wikipedia:WikiProject Articles for creation/Help desk,
