timestamp,revid,parentid,sock,user,page,message
2016-07-28T19:09:26+00:00,731974379,731429177,1,Time_consistent_eye_robotics,Time consistency (finance),
2016-07-24T19:39:45+00:00,731348670,731348586,1,Time_consistent_eye_robotics,Ludwig von Mises,
2016-07-24T19:39:02+00:00,731348586,731348465,1,Time_consistent_eye_robotics,Ludwig von Mises,
2016-07-24T19:38:04+00:00,731348465,731260715,1,Time_consistent_eye_robotics,Ludwig von Mises,
2016-07-24T19:08:18+00:00,731344753,731341360,1,Time_consistent_eye_robotics,Open society,
2016-07-24T18:39:51+00:00,731341360,731339546,1,Time_consistent_eye_robotics,Open society,
2016-07-24T18:25:52+00:00,731339546,731338559,1,Time_consistent_eye_robotics,Open society,
2016-07-24T18:18:19+00:00,731338559,718603999,1,Time_consistent_eye_robotics,Open society,
2016-07-24T18:09:06+00:00,731337433,731336620,1,Time_consistent_eye_robotics,Rational expectations,
2016-07-24T18:01:55+00:00,731336620,731335791,1,Time_consistent_eye_robotics,Rational expectations,
2016-07-24T17:55:36+00:00,731335791,731334537,1,Time_consistent_eye_robotics,Rational expectations,
2016-07-24T17:46:41+00:00,731334537,731333962,1,Time_consistent_eye_robotics,Rational expectations,
2016-07-24T17:42:20+00:00,731333962,731333679,1,Time_consistent_eye_robotics,Rational expectations,
2016-07-24T17:40:23+00:00,731333679,731333219,1,Time_consistent_eye_robotics,Rational expectations,
2016-07-24T17:36:50+00:00,731333219,725422262,1,Time_consistent_eye_robotics,Rational expectations,
2016-07-24T16:39:32+00:00,731326671,679395724,1,Time_consistent_eye_robotics,Time consistency (finance),
2016-07-24T14:57:52+00:00,731314031,725866490,1,Time_consistent_eye_robotics,Bj√∂rn Wahlroos,
2016-08-10T22:13:07+00:00,733911352,733898975,1,Carnegie-Mellon,The Garden of Allah (song),Undid revision 733898975 by [[Special:Contributions/Plantdrew|Plantdrew]] ([[User talk:Plantdrew|talk]]) ZZ Top's Decision or Collision refers to Carnegie-Mellon decision-making  model based on expectations. So now what?
2016-07-29T20:14:43+00:00,732124667,732107100,1,Cassandra_Paradox,Cobweb model,
2016-07-29T17:47:10+00:00,732107100,732106975,1,Cassandra_Paradox,Cobweb model,
2016-07-29T17:45:47+00:00,732106975,727748905,1,Cassandra_Paradox,Cobweb model,
2016-08-31T20:19:20+00:00,737107969,737107916,1,Caves_of_Altamira,Hotel California,"This article is a premium example how everything can be distorted on purpose, and vigorously sourced with meticulous references at the same time. Yeah, we are programmed to receive."
2016-08-31T20:04:33+00:00,737105801,735727056,1,Caves_of_Altamira,The Garden of Allah (song),Some unsourced content removed. Even the three last sentences should be removed since there are no references. There is no world outside publications. Hope that media companies expand it for us. Think if there were just data to be manipulated.
2016-08-22T18:21:05+00:00,735726563,735725578,1,Caves_of_Altamira,The Garden of Allah (song),"Undid revision 735725578 by [[Special:Contributions/Plantdrew|Plantdrew]] ([[User talk:Plantdrew|talk]]) More and more and Moore. Yes, it refers to the Beetle U.S. advertisement with the question how a snowploughman gets to his plough."
2016-08-22T18:01:02+00:00,735724063,735709707,1,Caves_of_Altamira,The Garden of Allah (song),Additions.
2016-08-22T16:00:15+00:00,735709707,735164012,1,Caves_of_Altamira,The Garden of Allah (song),"Undid revision 735164012 by [[Special:Contributions/Plantdrew|Plantdrew]] ([[User talk:Plantdrew|talk]]) Additions, f.e. Kill To Get Crimson connection."
2016-08-18T20:41:33+00:00,735138131,735135833,1,Caves_of_Altamira,The Garden of Allah (song),Undid revision 734673831 by [[Special:Contributions/Plantdrew|Plantdrew]] ([[User talk:Plantdrew|talk]]) Hendrix connection added.
2016-08-18T20:25:29+00:00,735135833,735049619,1,Caves_of_Altamira,The Garden of Allah (song),Undid revision 735049619 by [[Special:Contributions/BU Rob13|BU Rob13]] ([[User talk:BU Rob13|talk]])
2016-08-15T18:44:46+00:00,734641499,734224511,1,Caves_of_Altamira,The Garden of Allah (song),Undid revision 734224511 by [[Special:Contributions/Plantdrew|Plantdrew]] ([[User talk:Plantdrew|talk]]) It's explained in the information you removed.
2016-08-15T18:41:51+00:00,734641157,734640556,1,Caves_of_Altamira,The Royal Scam,Eagles reference: name Becker connection to Hotel California added.
2016-08-15T18:36:08+00:00,734640556,734224245,1,Caves_of_Altamira,The Royal Scam,Undid revision 734224245 by [[Special:Contributions/Plantdrew|Plantdrew]] ([[User talk:Plantdrew|talk]]) Took off some claims without sources or logic.
2016-08-12T20:21:33+00:00,734209451,733570714,1,Caves_of_Altamira,The Royal Scam,Undid revision 733570583 by [[Special:Contributions/Kaini|Kaini]] ([[User talk:Kaini|talk]])
2016-08-12T20:19:23+00:00,734209118,734187362,1,Caves_of_Altamira,The Garden of Allah (song),Undid revision 734187362 by [[Special:Contributions/Plantdrew|Plantdrew]] ([[User talk:Plantdrew|talk]]) Irrelevant? Friedman seeds are bad.
2016-08-12T17:41:24+00:00,734186535,733936415,1,Caves_of_Altamira,The Garden of Allah (song),"Undid revision 733936415 by [[Special:Contributions/Plantdrew|Plantdrew]] ([[User talk:Plantdrew|talk]]) Additions, clarifications."
2016-08-10T20:33:19+00:00,733898569,733896362,1,Caves_of_Altamira,The Garden of Allah (song),Undid revision 733896362 by [[Special:Contributions/Plantdrew|Plantdrew]] ([[User talk:Plantdrew|talk]]) . The stub version is only speculation.
2016-08-09T22:03:59+00:00,733754248,733593915,1,Caves_of_Altamira,The Garden of Allah (song),"Clarifications, corrections and additions."
2016-08-08T21:24:53+00:00,733593915,733446188,1,Caves_of_Altamira,The Garden of Allah (song),Additions.
2016-08-07T21:29:01+00:00,733446188,733421636,1,Caves_of_Altamira,The Garden of Allah (song),Additions.
2016-08-07T18:16:36+00:00,733421636,733390138,1,Caves_of_Altamira,The Garden of Allah (song),
2016-08-07T13:44:05+00:00,733390138,733314378,1,Caves_of_Altamira,The Garden of Allah (song),Additions.
2016-08-06T22:48:34+00:00,733314378,733165819,1,Caves_of_Altamira,The Garden of Allah (song),More additions.
2016-08-05T21:10:20+00:00,733165819,732939078,1,Caves_of_Altamira,The Garden of Allah (song),Additions.
2016-08-03T20:48:27+00:00,732877626,732770597,1,Caves_of_Altamira,The Garden of Allah (song),Additions and clarification. Minor errors corrected.
2016-08-02T21:36:48+00:00,732730965,732723259,1,Caves_of_Altamira,The Garden of Allah (song),Additions.
2016-08-02T20:31:38+00:00,732723259,732671147,1,Caves_of_Altamira,The Garden of Allah (song),Additions and minor corrections.
2016-08-01T22:24:16+00:00,732583593,732514989,1,Caves_of_Altamira,The Royal Scam,Undid revision 732514989 by [[Special:Contributions/Bob Caldwell CSL|Bob Caldwell CSL]] ([[User talk:Bob Caldwell CSL|talk]]) The removed part used the lyrics as the source for investigation. Too weird connections to be coincidence. Sad but true.
2016-08-01T22:17:35+00:00,732582789,732574777,1,Caves_of_Altamira,The Garden of Allah (song),An addition and minor corrections.
2016-08-01T21:13:01+00:00,732574777,732574291,1,Caves_of_Altamira,The Garden of Allah (song),Corrected and linked.
2016-08-01T21:09:17+00:00,732574291,732572972,1,Caves_of_Altamira,The Garden of Allah (song),An addition.
2016-08-01T20:59:24+00:00,732572972,732570734,1,Caves_of_Altamira,The Garden of Allah (song),Additions and minor corrections.
2016-08-01T20:44:31+00:00,732570734,732547877,1,Caves_of_Altamira,The Garden of Allah (song),"Corrections, clarifications and links."
2016-08-01T19:22:37+00:00,732559020,732557963,1,Caves_of_Altamira,I'm Beside You,
2016-08-01T19:13:54+00:00,732557963,728198631,1,Caves_of_Altamira,I'm Beside You,Graphic design origins added.
2016-07-31T21:26:39+00:00,732420005,712099765,1,Caves_of_Altamira,The Garden of Allah (song),
2016-07-31T13:46:09+00:00,732366036,732364113,1,Caves_of_Altamira,The Royal Scam,
2016-07-31T13:23:04+00:00,732364113,732329789,1,Caves_of_Altamira,The Royal Scam,
2016-07-30T23:14:46+00:00,732291998,732291788,1,Caves_of_Altamira,The Royal Scam,
2016-07-30T23:11:35+00:00,732291788,732291485,1,Caves_of_Altamira,The Royal Scam,
2016-07-30T23:07:31+00:00,732291485,732278750,1,Caves_of_Altamira,The Royal Scam,The Caves of Altamira explained. Some Futurists notes added.
2016-07-30T21:07:48+00:00,732278750,732267465,1,Caves_of_Altamira,The Royal Scam,
2016-07-30T19:46:22+00:00,732269198,728338866,1,Caves_of_Altamira,Al Held,Murals in WTC 7.
2016-07-30T19:30:40+00:00,732267465,732263261,1,Caves_of_Altamira,The Royal Scam,
2016-07-30T18:53:00+00:00,732263261,720180690,1,Caves_of_Altamira,The Royal Scam,Comments: cover and name.
2016-10-09T20:12:48+00:00,743469150,743466770,1,Dancing_Mickey_Mouse,Talk:Milton Friedman,/* Serious problems with  categories */ new section
2016-10-09T20:00:11+00:00,743466770,743466673,1,Dancing_Mickey_Mouse,Talk:Milton Friedman,
2016-10-09T19:59:40+00:00,743466673,743464141,1,Dancing_Mickey_Mouse,Talk:Milton Friedman,/* Friedman's fathers lastname? */ new section
2016-10-09T19:46:02+00:00,743464141,743115625,1,Dancing_Mickey_Mouse,Talk:Milton Friedman,Undid revision 743115625 by [[Special:Contributions/Clpo13|Clpo13]] ([[User talk:Clpo13|talk]]) This is a valid topic since in the reference book the lip is explained by an unexplained rock on a driveway
2016-10-09T18:42:47+00:00,743452612,743226072,1,Dancing_Mickey_Mouse,User talk:Acroterion,/* September 11 attacks talk page section removal */ new section
2016-10-07T20:31:50+00:00,743099983,743099559,1,Dancing_Mickey_Mouse,Talk:September 11 attacks,
2016-10-07T20:28:42+00:00,743099559,743076756,1,Dancing_Mickey_Mouse,Talk:September 11 attacks,/* Sources */ new section
2016-10-06T19:31:28+00:00,742939078,742935784,1,Dancing_Mickey_Mouse,Talk:Lucent Technologies,/* A rational expectations and Lucent technology connection */ new section
2016-10-06T19:06:16+00:00,742935784,742927939,1,Dancing_Mickey_Mouse,Talk:Lucent Technologies,/* Murray Hill facility features */ new section
2016-10-06T18:10:36+00:00,742927939,742927808,1,Dancing_Mickey_Mouse,Talk:Lucent Technologies,
2016-10-06T18:09:43+00:00,742927808,715103554,1,Dancing_Mickey_Mouse,Talk:Lucent Technologies,/* Did Nokia abrob Lucent or was it Lucent that absorbed Nokia? */ new section
2016-10-06T18:03:01+00:00,742926949,742873850,1,Dancing_Mickey_Mouse,Lucent Technologies,"Took off the word ""eventually"" because there is a claim that Lucent had absorbed Nokia long before this."
2016-10-05T21:01:46+00:00,742795402,741184236,1,Dancing_Mickey_Mouse,Talk:Rational expectations,/* Vandalism in deleting material from the article */ new section
2016-10-05T20:53:01+00:00,742794305,741178947,1,Dancing_Mickey_Mouse,Rational expectations,"Undid revision 741178947 by [[Special:Contributions/SPECIFICO|SPECIFICO]] ([[User talk:SPECIFICO|talk]]) No. ""Criticisms"" is sourced and linked and there should be an argument to remove it. The I don't like it is not an effective argument."
2016-10-05T20:38:33+00:00,742792515,734966863,1,Dancing_Mickey_Mouse,Talk:Milton Friedman,/* Friedman's and Alchian's upper lip defect */ new section
2016-10-04T18:57:22+00:00,742614174,742603288,1,Dancing_Mickey_Mouse,Talk:Aaron Russo,Undid revision 742603288 by [[Special:Contributions/Hut 8.5|Hut 8.5]] ([[User talk:Hut 8.5|talk]])
2016-10-04T14:57:27+00:00,742579670,742455375,1,Dancing_Mickey_Mouse,Talk:Aaron Russo,Undid revision 742455375 by [[Special:Contributions/Clpo13|Clpo13]] ([[User talk:Clpo13|talk]])
2016-10-03T20:32:39+00:00,742454732,724202295,1,Dancing_Mickey_Mouse,Talk:Otto von Habsburg,/* Habsburg's Austria-Hungary and the comments on September 2001 attacks */ new section
2016-10-02T22:04:44+00:00,742299378,723182200,1,Dancing_Mickey_Mouse,Talk:Aaron Russo,"/* Aaron Russo's family ties, technology and the man in the picture */ new section"
2016-09-30T20:59:59+00:00,741971363,741970689,1,Dancing_Mickey_Mouse,Talk:Bill Gates,Linked again and a minor correction.
2016-09-30T20:54:37+00:00,741970689,741322867,1,Dancing_Mickey_Mouse,Talk:Bill Gates,/* More family origins information needed and some interesting pictures */ new section
2016-09-30T15:49:13+00:00,741931879,735343399,1,Dancing_Mickey_Mouse,Talk:Paul Allen,/* More information about family and interest in brains needed */ new section
2016-09-29T18:48:23+00:00,741797783,740762361,1,Dancing_Mickey_Mouse,Talk:Jehovah's Witnesses,/* Espionage by Jehova's Witnesses and the abolition of nation states */ new section
2016-09-27T22:35:28+00:00,741504101,710314044,1,Dancing_Mickey_Mouse,Talk:National Coalition Party,/* Member of parliament Pertti Salolainen blackmails with nature damage */ new section
2016-09-25T21:41:45+00:00,741176531,741094324,1,Dancing_Mickey_Mouse,Rational expectations,Milton Friedman's Popperian theory validation.
2016-09-24T22:23:38+00:00,741025631,740862662,1,Dancing_Mickey_Mouse,Rational expectations,Soros declaration of the Age of Fallibility.
2016-09-24T18:23:05+00:00,740998054,640252143,1,Dancing_Mickey_Mouse,Talk:Mark Bevir,/* Governance section */ new section
2016-09-23T21:27:31+00:00,740872495,740574140,1,Dancing_Mickey_Mouse,Talk:Rational expectations,/* Reflexive events and full blown rational expectations */ new section
2016-09-23T20:04:40+00:00,740862662,738939794,1,Dancing_Mickey_Mouse,Rational expectations,Soros and Friedman about the hypothesis falsification.
2016-09-21T22:50:41+00:00,740574140,734526770,1,Dancing_Mickey_Mouse,Talk:Rational expectations,/* Possible extension to this article */ new section
2016-09-21T19:02:06+00:00,740546442,739286479,1,Dancing_Mickey_Mouse,Pirkko Mattila,There is no Finnish Parliament for Oulu alone. She's located in Helsinki supposedly for the nation as well.
2016-09-20T19:42:57+00:00,740391270,717897197,1,Dancing_Mickey_Mouse,Talk:Zbigniew Brzezinski,
2016-09-19T17:10:49+00:00,740196870,740196727,1,Dancing_Mickey_Mouse,Ignaz Maybaum,Mixed with Mandelbrot. Sorry about that.
2016-09-19T17:09:42+00:00,740196727,737370044,1,Dancing_Mickey_Mouse,Ignaz Maybaum,Apostasia bin laden.
2016-09-13T22:53:48+00:00,739304503,739118870,1,Dancing_Mickey_Mouse,Talk:Alvin Toffler,/* The Knopfler-Toffler story continues */ new section
2016-09-13T20:17:55+00:00,739283005,739097314,1,Dancing_Mickey_Mouse,Emmanuel Todd,Undid revision 739097314 by [[Special:Contributions/AlterBerg|AlterBerg]] ([[User talk:AlterBerg|talk]]) So AlterBerg removed the comma to imply that the war is actually against commas. Left you right behind.
2016-09-12T21:28:35+00:00,739116173,702592444,1,Dancing_Mickey_Mouse,International community,
2016-09-12T21:06:23+00:00,739113229,725713177,1,Dancing_Mickey_Mouse,Talk:Herbert A. Simon,/* The picture of H.A. Simon */ new section
2016-09-12T20:50:18+00:00,739110826,739085606,1,Dancing_Mickey_Mouse,Alvin Toffler,"Undid revision 739085606 by [[Special:Contributions/Light show|Light show]] ([[User talk:Light show|talk]]) No, you can't act like that. Look at the talk page."
2016-09-12T20:42:10+00:00,739109558,738921358,1,Dancing_Mickey_Mouse,Talk:Alvin Toffler,/* Mark Knopfler's striking reference to Toffler */ new section
2016-09-12T18:14:52+00:00,739084526,739077677,1,Dancing_Mickey_Mouse,Alvin Toffler,Mark Knopfler's reference to Toffler.
2016-09-12T17:26:36+00:00,739077677,734272352,1,Dancing_Mickey_Mouse,Alvin Toffler,"Toffler's consultancy on U.S. military forces and it's operations, and other information"
2016-09-11T19:42:52+00:00,738918652,738689558,1,Dancing_Mickey_Mouse,Emmanuel Todd,"""Criticism"" added."
2016-07-28T19:01:33+00:00,731973559,0,1,Governance_Paradigm,Governance without government,Start to Gov. without Gov. article.
2016-09-09T18:09:44+00:00,738560046,738558696,1,Independent_Consultant,Anders Borg,"Word ""proactive"" linked to ""proactivity"", which is connected to Carnegie decision making model, which is a New Classical Economics model. The model is not a new or Swedish one."
2016-09-09T17:58:30+00:00,738558696,727032935,1,Independent_Consultant,Anders Borg,
2016-09-11T22:01:18+00:00,738939794,731417744,1,Investment_Strike,Rational expectations,Rational expectations and criticism based on metacognition.
2016-08-26T21:02:59+00:00,736345662,736345431,1,Math-dressed_Theodor_Herzl's_students,Bengt Holmstr√∂m,
2016-08-26T21:01:04+00:00,736345431,731395690,1,Math-dressed_Theodor_Herzl's_students,Bengt Holmstr√∂m,You did not find John F. Muth's grave? And you can't ask Franco Modigliani either. You should solve that equation before you start consulting government with Korkman and Vihri√§l√§.
2016-08-22T22:52:53+00:00,735761530,729040793,1,Nelson_Where,Aaron Russo,Russo in Hollywood Speaks Out movie.
2016-09-11T19:55:14+00:00,738921280,727986020,1,Noise_Superimposed,Talk:Alvin Toffler,
2016-09-11T13:09:45+00:00,738854665,676527675,1,Noise_Superimposed,Talk:John Muth,/* Missing 1960 article and the origins of rational expectations */ new section
2016-08-26T18:32:39+00:00,736326520,730237020,1,Oskar_Morgenstern_and_John_von_Neumann,Mises Institute,Fucking liars. 9/11 was an inside job. Free world has to get rid of these Khazars.
2016-08-31T16:51:01+00:00,737079287,737076901,1,Strange_Weather,Hans Blix,Undid revision 737076901 by [[Special:Contributions/ClueBot NG|ClueBot NG]] ([[User talk:ClueBot NG|talk]]) Linked to Blix's hyaluronan and vitreous humour researcher father.
2016-08-31T16:31:57+00:00,737076891,737067032,1,Strange_Weather,Hans Blix,ISBN etc. added.
2016-08-31T15:19:31+00:00,737067032,736941052,1,Strange_Weather,Hans Blix,"Hans Blix's sons and their education level, and M√•rten Blix's dissertation ""Rational Expectations and Regime Shifts in Macroeconomics"" added."
2016-08-30T20:35:36+00:00,736941052,728390697,1,Strange_Weather,Hans Blix,"Changed ""Early life and career"" to ""Life and career"": Information about children etc. needed."
2016-09-06T18:05:39+00:00,738061586,732092524,1,The_March_Of_Black_Queen,Tjalling Koopmans,There is not and has not been a Nobel Prize in economics. This article needs also information about Koopmans' family background.
2016-09-06T18:01:39+00:00,738060796,731284682,1,The_March_Of_Black_Queen,Leonid Kantorovich,There is not and has not been a Nobel Prize in economics.
2016-07-30T17:02:59+00:00,732249260,732246016,1,There's_no_TINA,Bank of England,Education from common sense Keynesian to obscurant Friedmanite linked.
2016-07-30T16:34:20+00:00,732246016,731069639,1,There's_no_TINA,Bank of England,"Kaldor, Skidelsky and some Friedman added."
2016-09-06T20:58:57+00:00,738088183,737363493,1,Vienna_Totalitarians,Talk:Mises Institute,/* A serious conceptual error in the page */ new section
2016-09-06T20:26:23+00:00,738083543,738078048,1,Vienna_Totalitarians,Ludwig von Mises,Beller's and Klein's remarks added. Klein's argument is remarkable since Milton Friedman's parents were Hungarians and Hungary was a part of Austria-Hungary.
2016-09-06T19:49:15+00:00,738078048,737935312,1,Vienna_Totalitarians,Ludwig von Mises,The reason for emigration deleted. Some sources claim that Rockefeller financed these emigrants. So this question is a more complex one.
2016-07-21T09:39:59+00:00,730824309,730824189,0,Sleeping is fun,Alvin Toffler,
2016-09-12T21:43:24+00:00,739118282,739110826,0,Light show,Alvin Toffler,"Undid revision 739110826 by [[Special:Contributions/Dancing Mickey Mouse|Dancing Mickey Mouse]] ([[User talk:Dancing Mickey Mouse|talk]])Per talk, read the guidelines first."
2016-06-26T05:29:53+00:00,727032935,717113108,0,Graham11,Anders Borg,Removed [[Category:Christian feminists]] using [[WP:HC|HotCat]] as the article does not establish that the subject is associated with [[Christian feminism]] (even if he is both a Christian and a feminist)
2016-07-30T19:46:22+00:00,732269198,728338866,0,Caves of Altamira,Al Held,Murals in WTC 7.
2016-08-24T16:25:02+00:00,736018824,735403369,0,143.210.163.161,Bank of England,/* 18th century */
2016-10-07T10:44:26+00:00,743032486,740947220,0,Richardlord50,Bank of England,/* Founding */ d
2016-07-28T14:06:43+00:00,731937865,730824309,0,Invertzoo,Alvin Toffler,/* Critical assessment */ fox me sentence
2016-09-04T08:40:03+00:00,737666271,735820051,0,138.229.220.174,Aaron Russo,/* Early life */
2016-09-20T00:22:13+00:00,740254805,740168351,0,KasparBot,Bengt Holmstr√∂m,Authority control moved to Wikidata
2016-07-09T12:47:51+00:00,729040793,729039549,0,David.moreno72,Aaron Russo,Reverted edits by [[Special:Contributions/86.178.0.128|86.178.0.128]] ([[User talk:86.178.0.128|talk]]) ([[WP:HG|HG]]) (3.1.19)
2016-08-13T06:07:52+00:00,734272352,731937865,0,2602:30A:C043:79A0:601F:F7C:210C:5CE2,Alvin Toffler,"/* Personal life */ Added: upon his passing, the cause wasn't given."
2016-07-31T07:23:16+00:00,732333811,732271192,0,Yobot,Bank of England,[[WP:CHECKWIKI]] error fixes using [[Project:AWB|AWB]] (12061)
2016-07-22T19:08:12+00:00,731069639,730530428,0,Bender235,Bank of England,clean up; http->https (see [[WP:VPR/Archive 127#RfC: Should we convert existing Google and Internet Archive links to HTTPS?|this RfC]]) using [[Project:AWB|AWB]]
2016-09-09T18:09:44+00:00,738560046,738558696,0,Independent Consultant,Anders Borg,"Word ""proactive"" linked to ""proactivity"", which is connected to Carnegie decision making model, which is a New Classical Economics model. The model is not a new or Swedish one."
2016-07-25T02:49:15+00:00,731395690,721395704,0,Ponabona,Bengt Holmstr√∂m,/* References */
2016-08-25T14:52:36+00:00,736152865,731314031,0,Jeppiz,Bj√∂rn Wahlroos,In accordance with [[WP:DUE]] and [[WP:BLP]]. It's not for WP editors to add long sections of personal comments
2016-09-01T05:51:00+00:00,737180894,737180829,0,117.214.245.170,Cobweb model,/* Housing sector in Israel */
2016-09-22T16:16:59+00:00,740682410,740682290,0,Ben76266,Hans Blix,"/* Iraq disarmament ""crisis"" (2002‚Äì2003) */"
2016-07-24T14:57:52+00:00,731314031,725866490,0,Time consistent eye robotics,Bj√∂rn Wahlroos,
2016-07-17T07:28:54+00:00,730174539,730028225,0,175.156.17.58,Emmanuel Todd,/* External links */
2016-09-15T16:38:22+00:00,739591482,739297082,0,159.18.221.196,Emmanuel Todd,/* Criticism */
2016-07-29T12:51:52+00:00,732075943,731973559,0,DatGuy,Governance without government,"added [[CAT:O|orphan]], [[CAT:UNCAT|uncategorised]] tags using [[Project:AWB|AWB]]"
2016-07-01T00:55:06+00:00,727748905,716406128,0,I dream of horses,Cobweb model,"clean up, [[WP:AWB/T|typo(s) fixed]]: Therefore ‚Üí Therefore, using [[Project:AWB|AWB]]"
2016-08-16T06:59:55+00:00,734715322,733840920,0,Hooperbloob,Governance without government,+cat
2016-07-05T03:11:41+00:00,728390697,713462936,0,RyViking,Hans Blix,Fixed typo in intro paragraph--lead changed to led to adjust for correct past tense usage.
2016-09-13T21:53:34+00:00,739297082,739283005,0,AlterBerg,Emmanuel Todd,"""He was able to see a missing comma as a symptom of that condition of the world, that could result in a world war"" (Karl Kraus)"
2016-08-10T20:18:19+00:00,733896703,732822085,0,Plantdrew,I'm Beside You,/* Graphic design */ irrelevant
2016-09-01T06:16:25+00:00,737183629,737079287,0,Yobot,Hans Blix,[[WP:CHECKWIKI]] error fixes using [[Project:AWB|AWB]]
2016-07-27T12:52:53+00:00,731775311,731773066,0,Binksternet,Hotel California,Reverted 1 edit by [[Special:Contributions/108.34.211.123|108.34.211.123]] ([[User talk:108.34.211.123|talk]]): Rv genre warring. ([[WP:TW|TW]])
2016-09-20T07:57:13+00:00,740308156,737935199,0,Bender the Bot,Hotel California,http&rarr;https for [[Google Books]] and [[Google News]] using [[Project:AWB|AWB]]
2016-09-20T04:59:11+00:00,740292405,740196870,0,BG19bot,Ignaz Maybaum,/* References */[[WP:CHECKWIKI]] error fix for #03.  Missing Reflist.  Do [[Wikipedia:GENFIXES|general fixes]] if a problem exists. -
2016-07-24T10:16:16+00:00,731284682,730800874,0,Ponabona,Leonid Kantorovich,/* External links */
2016-08-03T23:37:40+00:00,732895414,703071710,0,Ser Amantio di Nicolao,Ignaz Maybaum,removed [[Category:People from Vienna]]; added [[Category:Writers from Vienna]] using [[WP:HC|HotCat]]
2016-09-13T12:43:50+00:00,739218298,724430640,0,153.31.112.24,Lucent Technologies,"added Alcatel-Lucent's absorption by Nokia (already cited on the Alcatel-Lucent page, but useful here because otherwise Alcatel-Lucent seems like a current entity); noted that Plan 9 was a Lucent project because otherwise that paragraph seems irrelevant"
2016-09-02T09:23:50+00:00,737370044,737369991,0,Necrothesp,Ignaz Maybaum,added [[Category:Austrian emigrants to England]] using [[WP:HC|HotCat]]
2016-09-12T21:28:35+00:00,739116173,702592444,0,Dancing Mickey Mouse,International community,
2016-01-31T14:54:40+00:00,702592444,701410231,0,Baking Soda,International community,Filled in 4 bare reference(s) with [[:en:WP:REFILL|reFill]] ()
2016-09-06T18:01:39+00:00,738060796,731284682,0,The March Of Black Queen,Leonid Kantorovich,There is not and has not been a Nobel Prize in economics.
2016-10-02T04:10:30+00:00,742176539,740698989,0,BlueOystey,Ludwig von Mises,Updated Influences
2016-08-20T19:43:20+00:00,735447157,735426352,0,Arga√Ø,Ludwig von Mises,
2016-09-06T20:26:23+00:00,738083543,738078048,0,Vienna Totalitarians,Ludwig von Mises,Beller's and Klein's remarks added. Klein's argument is remarkable since Milton Friedman's parents were Hungarians and Hungary was a part of Austria-Hungary.
2016-09-20T00:52:36+00:00,740259402,739421191,0,Serendiponimous,Ludwig von Mises,"Removed ""(known as the Carnegie school decision-making model as well)"" which is incorrect and not referenced."
2016-09-14T15:51:52+00:00,739421191,739402482,0,Bender235,Ludwig von Mises,"[[WP:AWB/T|Typo fixing]], [[WP:AWB/T|typo(s) fixed]]: stongly ‚Üí strongly using [[Project:AWB|AWB]]"
2016-07-28T13:37:36+00:00,731934888,731934795,0,Dedpan411,Ludwig von Mises,comma placement fix
2016-09-01T03:08:05+00:00,737161158,736830325,0,1.39.15.182,Mises Institute,
2016-07-17T17:50:37+00:00,730237020,730187980,0,Dsprc,Mises Institute,Undid revision 730187980 -- source is right there; also not limited to kinsella as they've published numerous such works
2016-09-16T04:53:59+00:00,739664897,739591617,0,Srich32977,Open society,ce
2016-07-24T19:08:18+00:00,731344753,731341360,0,Time consistent eye robotics,Open society,
2016-08-11T17:41:33+00:00,734029888,732340129,0,134.134.139.83,Ludwig von Mises,
2016-07-24T19:39:45+00:00,731348670,731348586,0,Time consistent eye robotics,Ludwig von Mises,
2016-08-26T07:16:46+00:00,736258008,736111682,0,85.76.68.168,Pirkko Mattila,/* External links */
2016-07-25T07:00:59+00:00,731417744,731337433,0,Yobot,Rational expectations,[[WP:CHECKWIKI]] error fixes using [[Project:AWB|AWB]] (12058)
2016-09-11T22:01:18+00:00,738939794,731417744,0,Investment Strike,Rational expectations,Rational expectations and criticism based on metacognition.
2016-09-25T22:02:30+00:00,741178947,741176531,0,SPECIFICO,Rational expectations,"/* Criticisms */ This entire section is unsourced, off-topic, or SYNTH and OR.  I am copying to the talk page in case any of it is useful to future editors."
2016-09-21T19:02:06+00:00,740546442,739286479,0,Dancing Mickey Mouse,Pirkko Mattila,There is no Finnish Parliament for Oulu alone. She's located in Helsinki supposedly for the nation as well.
2016-10-05T20:53:01+00:00,742794305,741178947,0,Dancing Mickey Mouse,Rational expectations,"Undid revision 741178947 by [[Special:Contributions/SPECIFICO|SPECIFICO]] ([[User talk:SPECIFICO|talk]]) No. ""Criticisms"" is sourced and linked and there should be an argument to remove it. The I don't like it is not an effective argument."
2016-07-24T17:36:50+00:00,731333219,725422262,0,Time consistent eye robotics,Rational expectations,
2016-06-01T14:36:47+00:00,723182200,723131077,0,Famspear,Talk:Aaron Russo,/* Alex Jones interview? */ comment.
2016-10-04T19:02:21+00:00,742614869,742614174,0,Hut 8.5,Talk:Aaron Russo,"rv, [[WP:NOTFORUM]], [[WP:BLP]] etc"
2016-07-02T11:13:18+00:00,727986020,727827295,0,RscprinterBot,Talk:Alvin Toffler,"Article appeared on In The News, added {{ITN talk}} banner to talkpage (T7)"
2016-09-12T21:47:12+00:00,739118870,739118135,0,Jonathunder,Talk:Alvin Toffler,/* Mark Knopfler's striking reference to Toffler */
2016-09-11T19:55:36+00:00,738921358,738921280,0,SineBot,Talk:Alvin Toffler,"Signing comment by [[User:Noise Superimposed|Noise Superimposed]] - """""
2016-09-30T20:59:59+00:00,741971363,741970689,0,Dancing Mickey Mouse,Talk:Bill Gates,Linked again and a minor correction.
2016-09-13T22:54:09+00:00,739304560,739304503,0,SineBot,Talk:Alvin Toffler,"Signing comment by [[User:Dancing Mickey Mouse|Dancing Mickey Mouse]] - ""/* The Knopfler-Toffler story continues */ new section"""
2016-08-22T00:26:54+00:00,735621026,732010759,0,Lowercase sigmabot III,Talk:Bill Gates,Archiving 2 discussion(s) to [[Talk:Bill Gates/Archive 6]]) (bot
2016-09-20T09:00:41+00:00,740314749,740314724,0,MelbourneStar,Talk:Bill Gates,Reverted edits by [[Special:Contributions/85.92.166.227|85.92.166.227]] ([[User talk:85.92.166.227|talk]]) ([[WP:HG|HG]]) (3.1.21)
2016-07-29T00:08:21+00:00,732010759,732010154,0,Kuru,Talk:Bill Gates,/* KBE */ add
2016-04-13T18:41:24+00:00,715103554,678051089,0,H.dryad,Talk:Lucent Technologies,low
2016-08-09T00:13:10+00:00,733613419,732628559,0,Lowercase sigmabot III,Talk:Jehovah's Witnesses,Archiving 1 discussion(s) to [[Talk:Jehovah's Witnesses/Archive 62]]) (bot
2016-09-12T21:06:45+00:00,739113279,739113229,0,SineBot,Talk:Herbert A. Simon,"Signing comment by [[User:Dancing Mickey Mouse|Dancing Mickey Mouse]] - ""/* The picture of H.A. Simon */ new section"""
2016-09-11T13:10:08+00:00,738854704,738854665,0,SineBot,Talk:John Muth,"Signing comment by [[User:Noise Superimposed|Noise Superimposed]] - ""/* Missing 1960 article and the origins of rational expectations */ new section"""
2016-09-19T07:22:56+00:00,740133744,740026778,0,Nillurcheier,Talk:Jehovah's Witnesses,comment not related to article improvement
2014-12-30T15:56:32+00:00,640252143,587769132,0,37.205.58.146,Talk:Mark Bevir,
2016-05-20T00:11:55+00:00,721137758,721064313,0,Lowercase sigmabot III,Talk:Milton Friedman,Archiving 2 discussion(s) to [[Talk:Milton Friedman/Archive 4]]) (bot
2016-10-03T20:41:06+00:00,742455838,740998054,0,Clpo13,Talk:Mark Bevir,"Reverted to revision 640252143 by [[Special:Contributions/37.205.58.146|37.205.58.146]] ([[User talk:37.205.58.146|talk]]): Unreferenced, barely relevant; [[WP:NOTFORUM]]. ([[WP:TW|TW]])"
2016-08-17T20:57:31+00:00,734966863,721137758,0,Jauerback,Talk:Milton Friedman,"[[User:Technical 13/1CA|OneClickArchiver]] archived [[Special:Diff/734966860|Lucas, New Classic economics etc]] to [[Talk:Milton Friedman/Archive 4#Lucas, New Classic economics etc|Talk:Milton Friedman/Archive 4]]"
2016-10-03T20:40:27+00:00,742455755,741504101,0,Clpo13,Talk:National Coalition Party,"Reverted to revision 710314044 by [[Special:Contributions/Ricky81682|Ricky81682]] ([[User talk:Ricky81682|talk]]): [[WP:NOTFORUM]], possible [[WP:BLP]] issues. ([[WP:TW|TW]])"
2016-06-07T19:34:13+00:00,724202295,707284661,0,Richardson mcphillips,Talk:Otto von Habsburg,/* not Quebec? */ new section
2016-09-06T21:22:15+00:00,738091332,738088252,0,Safehaven86,Talk:Mises Institute,/* A serious conceptual error in the page */
2016-08-20T02:44:13+00:00,735343399,732018651,0,Lizard the Wizard,Talk:Paul Allen,
2016-07-29T01:19:16+00:00,732018651,721723490,0,BU RoBOT,Talk:Paul Allen,/* top */Adding [[WP:WikiProject National Football League]] template; genfixes ([[Wikipedia:Bots/Requests_for_approval/BU_RoBOT_17|task 17]])
2016-01-20T15:47:34+00:00,700778121,614584580,0,Nicmart,Talk:Mises Institute,/* SPLC */ new section
2016-08-14T23:09:09+00:00,734526770,733542517,0,I.yeckehzaare,Talk:Rational expectations,/* Dr. Davila's comment on this article */
2016-03-16T06:22:58+00:00,710314044,686157217,0,Ricky81682,Talk:National Coalition Party,/* top */merging Political Parties template into Politics using [[Project:AWB|AWB]]
2015-10-19T09:53:33+00:00,686475861,686393798,0,Herbert81,Talk:Rational expectations,/* Definition not encyclopedic style */
2016-07-27T19:28:19+00:00,731826550,731711749,0,95.133.149.157,Talk:September 11 attacks,/* Remove categories */
2016-08-18T16:24:58+00:00,735100240,735073787,0,Acroterion,Talk:September 11 attacks,Reverted 1 edit by [[Special:Contributions/Weatherlawyer|Weatherlawyer]] ([[User talk:Weatherlawyer|talk]]): Not a forum. ([[WP:TW|TW]])
2016-09-24T18:43:28+00:00,741000548,741000495,0,Rjensen,Talk:September 11 attacks,Reverted edits by [[Special:Contribs/68.65.175.12|68.65.175.12]] ([[User talk:68.65.175.12|talk]]) to last version by Oshwah
2016-03-26T23:25:33+00:00,712099765,712098602,0,I use that word loosely,The Garden of Allah (song),
2016-08-22T18:25:07+00:00,735727056,735726563,0,Velella,The Garden of Allah (song),Undid revision 735726563 by [[Special:Contributions/Caves of Altamira|Caves of Altamira]] ([[User talk:Caves of Altamira|talk]]) - unsourced essay
2016-08-31T20:04:33+00:00,737105801,735727056,0,Caves of Altamira,The Garden of Allah (song),Some unsourced content removed. Even the three last sentences should be removed since there are no references. There is no world outside publications. Hope that media companies expand it for us. Think if there were just data to be manipulated.
2016-09-07T00:22:03+00:00,738114851,738113552,0,LuK3,Talk:September 11 attacks,Reverted edits by [[Special:Contribs/2601:781:100:5170:75C2:8DA:552F:6137|2601:781:100:5170:75C2:8DA:552F:6137]] ([[User talk:2601:781:100:5170:75C2:8DA:552F:6137|talk]]) to last version by IslandHopper973
2016-04-30T11:14:23+00:00,717897197,711751604,0,JJMC89 bot,Talk:Zbigniew Brzezinski,subst /Comments to [[WP:DCS|discontinue comments subpage]]) ([[Project:AWB|AWB]] [12009]
2016-08-15T23:23:56+00:00,734673831,734641499,0,Plantdrew,The Garden of Allah (song),revert again
2016-08-12T22:04:26+00:00,734224511,734209118,0,Plantdrew,The Garden of Allah (song),what does Friedman have to do with this song?
2016-08-18T23:57:24+00:00,735164012,735138131,0,Plantdrew,The Garden of Allah (song),revert again
2016-08-05T21:10:20+00:00,733165819,732939078,0,Caves of Altamira,The Garden of Allah (song),Additions.
2016-08-02T13:44:19+00:00,732671147,732639725,0,Iridescent,The Garden of Allah (song),"/* top */[[WP:AWB/T|Typo fixing]], [[WP:AWB/T|typo(s) fixed]]: above mentioned ‚Üí above-mentioned, three year ‚Üí three-year, 1990's ‚Üí 1990s using [[Project:AWB|AWB]]"
2016-08-08T21:24:53+00:00,733593915,733446188,0,Caves of Altamira,The Garden of Allah (song),Additions.
2016-08-11T01:57:38+00:00,733936415,733911352,0,Plantdrew,The Garden of Allah (song),remove original research and unencyclopedic description of music video
2016-08-04T07:56:28+00:00,732939078,732877626,0,Yobot,The Garden of Allah (song),/* top */[[WP:CHECKWIKI]] error fixes using [[Project:AWB|AWB]] (12061)
2016-08-12T17:46:08+00:00,734187362,734186535,0,Plantdrew,The Garden of Allah (song),revert unsourced irrelevant speculation
2016-08-12T20:19:23+00:00,734209118,734187362,0,Caves of Altamira,The Garden of Allah (song),Undid revision 734187362 by [[Special:Contributions/Plantdrew|Plantdrew]] ([[User talk:Plantdrew|talk]]) Irrelevant? Friedman seeds are bad.
2016-07-31T06:35:37+00:00,732329789,732291998,0,Yobot,The Royal Scam,[[WP:CHECKWIKI]] error fixes using [[Project:AWB|AWB]] (12061)
2016-05-14T06:21:08+00:00,720180690,719176587,0,BG19bot,The Royal Scam,Remove blank line(s) between list items per [[WP:LISTGAP]] to fix an accessibility issue for users of [[screen reader]]s. Do [[WP:GENFIXES]] and cleanup if needed. Discuss this at... using [[Project:AWB|AWB]]
2016-09-24T15:53:58+00:00,740979126,740978816,0,86.133.83.157,The Royal Scam,/* Track listing */
2016-08-15T20:05:23+00:00,734651132,734649461,0,Plantdrew,The Royal Scam,revert original research again
2016-08-08T18:48:13+00:00,733570714,733570583,0,Kaini,The Royal Scam,/* Eagles reference and beyond */ inconsequential
2016-08-01T23:01:57+00:00,732587507,732583593,0,Vaulter,The Royal Scam,"Reverted to revision 732514989 by [[Special:Contributions/Bob Caldwell CSL|Bob Caldwell CSL]] ([[User talk:Bob Caldwell CSL|talk]]): I'm not sure what this is, but it's not appropriate. ([[WP:TW|TW]])"
2016-07-30T21:07:48+00:00,732278750,732267465,0,Caves of Altamira,The Royal Scam,
2016-08-01T03:52:04+00:00,732461122,731974379,0,Vanished Account Byeznhpyxeuztibuo,Time consistency (finance),Disambiguated: [[retrieval]] ‚Üí [[Data retrieval]]
2016-07-29T15:29:10+00:00,732092524,731409443,0,Ponabona,Tjalling Koopmans,/* External links */
2016-07-24T13:12:57+00:00,731301441,731299488,0,NasssaNser,User talk:Acroterion,/* Thanks for deleting that article */ new section
2016-08-14T03:08:14+00:00,734405574,734405374,0,Acroterion,User talk:Acroterion,/* wiki page creation */ not yet notable
2015-12-17T23:23:27+00:00,695702138,688361012,0,Magioladitis,Alvin Toffler,/* External links */clean up using [[Project:AWB|AWB]] (11757)
2015-07-26T19:21:33+00:00,673193263,660400548,0,Modernist,Al Held,/* Career */ ce
2016-03-29T20:29:03+00:00,712560060,704452354,0,Cyberbot II,Alvin Toffler,Rescuing 1 sources. #IABot
2016-07-09T08:18:26+00:00,729020432,728927641,0,RussBot,Alvin Toffler,Bot: Change redirected category [[:Category:Jewish Americans|Jewish Americans]] to [[:Category:American Jews|American Jews]]
2016-04-25T08:19:30+00:00,717025476,717008691,0,Satellizer,Aaron Russo,Reverted 1 edit by [[Special:Contributions/2A02:582:190F:C100:1268:3FFF:FE99:951C|2A02:582:190F:C100:1268:3FFF:FE99:951C]] identified as test/vandalism using [[WP:STiki|STiki]]
2015-07-31T00:14:21+00:00,673861097,673859042,0,AnomieBOT,Alvin Toffler,Dating maintenance tags: {{By whom?}} {{When?}}
2015-12-14T13:31:24+00:00,695203638,695203534,0,Gilliam,Al Held,Reverted edits by [[Special:Contribs/163.153.172.28|163.153.172.28]] ([[User talk:163.153.172.28|talk]]) to last version by ClueBot NG
2015-01-19T00:11:13+00:00,643127782,638553487,0,FrescoBot,Alvin Toffler,Bot: [[User:FrescoBot/Links|link syntax]]
2016-02-26T06:14:47+00:00,706956821,703068651,0,OgreBot,Aaron Russo,Replacing [[File:Russo Gold cropped.jpg]] with Commons version [[File:Aaron Russo Gold Commemorative Memorial Piece.jpg]] ([[User talk:Magog the Ogre|report errors here]])
2015-09-22T14:51:26+00:00,682253379,680408921,0,Koavf,Alvin Toffler,"Deleting per CfD, funcationality replaced by Wikidata, removed: {{Persondata using [[Project:AWB|AWB]]"
2015-05-24T15:05:19+00:00,663808435,660935108,0,KConWiki,Alvin Toffler,/* External links */
2015-09-24T14:53:50+00:00,682567469,682253379,0,Lotje,Alvin Toffler,Filled in 5 bare reference(s) with [[:en:WP:REFILL|reFill]] () {{commonscat}}
2015-03-26T16:57:31+00:00,653627137,652940869,0,Joeycut,Al Held,Added information about his murals + citation
2016-01-26T03:29:06+00:00,701712122,696816902,0,The Vintage Feminist,Anders Borg,/* See also */ Added [[Feminist economics]] and [[List of feminist economists]].
2015-12-09T21:05:00+00:00,694529986,693140153,0,Ham II,Bank of England,removed [[Category:Buildings and structures in the City of London]]; added [[Category:Grade I listed buildings in the City of London]] using [[WP:HC|HotCat]]
2016-04-11T07:53:37+00:00,714690374,714690342,0,Cahk,Bank of England,Reverted 1 edit by [[Special:Contributions/Gtfyvtyvyg yvyitgyvygvgvy|Gtfyvtyvyg yvyitgyvygvgvy]] ([[User talk:Gtfyvtyvyg yvyitgyvygvgvy|talk]]) to last revision by Bender235. ([[WP:TW|TW]])
2015-11-02T21:01:20+00:00,688750158,688750100,0,Moonraker,Bank of England,L
2015-11-20T14:01:25+00:00,691538523,691538516,0,ClueBot NG,Bank of England,"Reverting possible vandalism by [[Special:Contribs/85.119.104.182|85.119.104.182]] to version by Moonraker. [[WP:CBFP|Report False Positive?]] Thanks, [[WP:CBNG|ClueBot NG]]. (2442187) (Bot)"
2015-02-24T02:53:27+00:00,648573942,648274708,0,Dl2000,Bank of England,fix quot/ital
2016-04-25T20:15:02+00:00,717113108,717113082,0,MusikAnimal,Anders Borg,Reverted edits by [[Special:Contributions/83.251.18.104|83.251.18.104]] ([[User talk:83.251.18.104|talk]]) ([[WP:HG|HG]]) (3.1.19)
2015-03-24T08:30:16+00:00,653278811,653278511,0,Materialscientist,Bank of England,Reverted 1 edit by [[Special:Contributions/125.213.206.234|125.213.206.234]] identified as test/vandalism using [[WP:STiki|STiki]]
2016-04-20T12:35:46+00:00,716186084,711763766,0,Cathodeglass Peekers,Bengt Holmstr√∂m,Korkman wants you to take flowers to John F. Muth's grave if you can find it.
2016-07-07T19:38:21+00:00,728805030,728805019,0,ClueBot NG,Bank of England,"Reverting possible vandalism by [[Special:Contribs/2.29.92.185|2.29.92.185]] to version by 193.129.26.250. [[WP:CBFP|Report False Positive?]] Thanks, [[WP:CBNG|ClueBot NG]]. (2703980) (Bot)"
2015-03-17T21:39:02+00:00,651838044,651830988,0,NickW557,Bank of England,Reverted edits by [[Special:Contributions/86.160.68.125|86.160.68.125]] ([[User talk:86.160.68.125|talk]]) ([[WP:HG|HG]])
2016-08-26T21:02:59+00:00,736345662,736345431,0,Math-dressed Theodor Herzl's students,Bengt Holmstr√∂m,
2015-04-05T01:40:15+00:00,654989027,653207542,0,Mechanismdesigner,Bengt Holmstr√∂m,Removed slander
2015-06-02T11:30:25+00:00,665159754,660415429,0,Punavuori,Bj√∂rn Wahlroos,+new book + edits
2015-07-02T18:21:15+00:00,669667592,667183395,0,37.205.56.35,Bengt Holmstr√∂m,Undid revision 667183395 by [[Special:Contributions/Sean Sannas|Sean Sannas]] ([[User talk:Sean Sannas|talk]])
2016-06-18T10:55:00+00:00,725866490,722341838,0,197.215.251.86,Bj√∂rn Wahlroos,
2015-04-11T09:08:43+00:00,655947324,650065075,0,Rjwilmsi,Cobweb model,"/* References */Journal cites, Added 2 dois to journal cites using [[Project:AWB|AWB]] (10870)"
2015-03-05T23:14:08+00:00,650065075,650064522,0,Haeinous,Cobweb model,
2015-09-11T19:08:15+00:00,680574186,680528080,0,CV9933,Cobweb model,Undid revision 680528080 by [[Special:Contributions/14.139.235.195|14.139.235.195]] ([[User talk:14.139.235.195|talk]])rv cite error.
2015-09-08T12:03:41+00:00,680052726,678566548,0,143.176.147.51,Emmanuel Todd,"Todd's nationality is French, not ""Jewish""."
2016-04-17T23:35:53+00:00,715778656,707395175,0,Zigzig20s,Emmanuel Todd,/* External links */ Category:French demographers
2014-11-19T01:31:37+00:00,634466611,618153225,0,Oestani,Emmanuel Todd,"Changement de la photo, trop ancienne"
2016-04-23T07:48:09+00:00,716695093,715568356,0,RudiLefkowitz,Bj√∂rn Wahlroos,No source whatsoever!
2015-05-23T09:26:39+00:00,663652348,661532433,0,2A01:E35:2E37:2060:E143:E4AF:7020:B088,Emmanuel Todd,/* Essays */
2015-11-07T16:41:22+00:00,689503061,685350765,0,Gabriel Yuji,Emmanuel Todd,"""socities"" ‚Üí ""societies"""
2015-01-19T01:23:24+00:00,643136528,640110119,0,All Hallow's Wraith,Hans Blix,
2016-09-20T08:46:15+00:00,740313474,734715322,0,Fixer88,Governance without government,Disambiguated: [[Law of nature]] ‚Üí [[natural law]]
2015-11-25T00:31:41+00:00,692336760,685326890,0,Cydebot,Hans Blix,Robot - Speedily moving category Liberal People's Party (Sweden) politicians to [[:Category:Liberals (Sweden) politicians]] per [[WP:CFDS|CFDS]].
2015-07-09T01:38:12+00:00,670609100,670213969,0,Ewulp,Hans Blix,/* Humanitarian initiatives */ ce
2015-10-12T06:27:14+00:00,685326890,675022202,0,Archie2013,Hans Blix,/* Honours */ Added Wikilink
2015-06-05T19:40:23+00:00,665660809,664183226,0,Albany NY,Hans Blix,/* top */ tense update
2016-04-04T05:39:58+00:00,713462936,709717408,0,58.65.176.71,Hans Blix,"I added Blix statement in which he said ""There were about 700 inspections, and in no case did we find weapons of mass destruction,"""
2016-06-27T03:54:51+00:00,727166481,727165374,0,115.164.60.171,Hotel California,Rv genre warrior
2015-11-28T21:55:59+00:00,692865865,692837526,0,Piriczki,Hotel California,Undid revision 692837526 by [[Special:Contributions/70.199.100.18|70.199.100.18]] ([[User talk:70.199.100.18|talk]])
2016-05-20T18:53:14+00:00,721274509,721274492,0,ClueBot NG,Hotel California,"Reverting possible vandalism by [[Special:Contribs/108.171.131.163|108.171.131.163]] to version by Thnidu. [[WP:CBFP|Report False Positive?]] Thanks, [[WP:CBNG|ClueBot NG]]. (2661053) (Bot)"
2015-06-18T13:49:46+00:00,667490032,667478371,0,Piriczki,Hotel California,rv
2016-02-04T17:31:31+00:00,703295358,703085378,0,177.86.120.13,Hotel California,
2015-07-27T21:18:09+00:00,673366077,664779187,0,BenStein69,I'm Beside You,
2015-04-19T00:48:36+00:00,657118777,650985297,0,Headhitter,Ignaz Maybaum,+link
2014-11-29T06:52:14+00:00,635866443,634880330,0,BreakfastJr,International community,Copyedit
2015-05-16T22:45:31+00:00,662668582,635866443,0,GabeIglesia,International community,Style fix in lead
2015-10-07T16:03:29+00:00,684589901,683117628,0,109.108.251.119,Leonid Kantorovich,/* External links */
2016-02-11T20:16:30+00:00,704471582,704445161,0,JayJasper,Ludwig von Mises,punc. fix
2015-09-26T15:48:31+00:00,682860726,682020918,0,97.117.127.78,Ludwig von Mises,
2015-02-08T02:22:07+00:00,646126643,633062349,0,SageGreenRider,Lucent Technologies,Fiorina and the logo
2015-02-03T23:06:54+00:00,645519700,644694289,0,Tigercompanion25,Ludwig von Mises,"Capitalized the ""a"" in ""Austrian."""
2016-07-03T14:39:46+00:00,728148300,728147576,0,2600:1001:B01F:5CFB:5D71:9A18:494E:D3A4,Ludwig von Mises,
2015-09-21T07:14:44+00:00,682054617,682054132,0,Alfredo.Delgado,Lucent Technologies,/* History */
2016-02-21T05:51:47+00:00,706059644,694704355,0,70.184.214.45,Lucent Technologies,Cleaned up some spacing.
2016-06-08T04:31:29+00:00,724266006,724265855,0,108.16.6.88,Ludwig von Mises,
2016-05-15T14:07:13+00:00,720377859,718851499,0,Nyttend,Ludwig von Mises,Another hatnote; I couldn't understand why [[velocity of money]] presented a critique by an architect
2015-03-21T04:56:36+00:00,652836180,648212193,0,Thomasvoss6941,Ludwig von Mises,Added a Fr√©d√©ric Bastiat to influences.
2016-02-27T15:54:59+00:00,707223498,707223040,0,JayJasper,Ludwig von Mises,rv. unnecessary  [[WP:PIPE|pipe]]
2015-05-09T23:29:18+00:00,661622790,660209870,0,67.2.174.131,Ludwig von Mises,
2015-06-12T09:06:19+00:00,666601108,666578378,0,Rui Gabriel Correia,Ludwig von Mises,apostrophe correct use and consistency
2015-09-03T19:25:17+00:00,679307258,679230911,0,74.192.166.228,Mises Institute,"Undid revision 679230911 by [[Special:Contributions/201.37.166.131|201.37.166.131]] ([[User talk:201.37.166.131|talk]]) - Page had been defaced, ""Tu ne cede malis, sed contra audentior ito'' is the correct motto for the institute."
2015-03-14T01:23:19+00:00,651274795,650463290,0,72.94.34.81,Open society,/* See also */
2015-05-27T09:32:51+00:00,664247585,651274795,0,81.141.225.203,Open society,/* Criticism */
2015-09-11T22:59:38+00:00,680601007,676745086,0,N√∏kkenbuer,Open society,"/* top */ punctuation, inappropriate and potentially POV term replaced with a more appropriate one"
2016-05-04T13:59:06+00:00,718603999,716012675,0,Janechristinemason,Open society,/* Critical knowledge */
2016-07-02T05:51:51+00:00,727955633,719901726,0,Cyberbot II,Pirkko Mattila,Rescuing 1 sources and tagging 0 as dead. #IABot
2016-06-15T15:22:31+00:00,725422262,720236548,0,4.79.228.100,Rational expectations,
2015-02-16T00:39:22+00:00,647321017,623419893,0,Dl2000,Pirkko Mattila,ordinals not normally used for dates ([[WP:DATESNO]])
2015-03-27T23:17:02+00:00,653817840,647321017,0,Dual Freq,Pirkko Mattila,"link is dead, here is a new link, but I don't know if it supports these claims."
2015-06-03T14:25:44+00:00,665330040,664917804,0,JohnMaynard92,Pirkko Mattila,
2015-06-21T15:53:32+00:00,667945468,663930443,0,Buldri,Rational expectations,"/* Criticisms */  Confusing ""rational expectations"" and rational choice theory"
2016-05-14T15:52:16+00:00,720236548,720236526,0,Marcocapelle,Rational expectations,removed [[Category:Rational choice theory]]
2014-10-12T03:33:25+00:00,629257772,613218465,0,Y-S.Ko,Rational expectations,
2016-01-25T14:51:39+00:00,701606360,699458011,0,Klbrain,Rational expectations,"Disambiguated: [[Logistic]] ‚Üí [[Logistics]], [[dynamics]] ‚Üí [[Monetary economics]]"
2015-05-05T09:33:49+00:00,660920881,660869307,0,Buldri,Rational expectations,
2016-01-12T12:59:38+00:00,699458011,698284180,0,Bullis,Rational expectations,
2015-02-05T18:05:18+00:00,645773688,645766300,0,JayJasper,Talk:Aaron Russo,Undid revision 645766300 by [[Special:Contributions/98.247.130.26|98.247.130.26]] ([[User talk:98.247.130.26|talk]]) unexplained alteration of another user's comments
2016-03-29T20:29:05+00:00,712560062,705809670,0,Cyberbot II,Talk:Alvin Toffler,Notification of altered sources needing review #IABot
2015-09-10T17:53:13+00:00,680406883,676534488,0,Fixuture,Talk:Alvin Toffler,"Assessment: +Futures studies: importance=High, class=Start ([[User:Kephir/gadgets/rater|assisted]])"
2015-11-13T16:19:33+00:00,690473061,690432813,0,Wdchk,Talk:Bill Gates,"rm off-topic comment, nothing to do with this article"
2015-03-29T17:29:46+00:00,654059086,654059008,0,207.118.9.252,Talk:Bill Gates,/* Semi-protected edit request on 30 December 2014 */
2015-04-30T23:57:08+00:00,660149304,659968597,0,94.245.53.33,Talk:Bill Gates,/* Pied */ new section
2016-06-17T11:23:46+00:00,725713177,725708048,0,Limit-theorem,Talk:Herbert A. Simon,/* Study of decision-making edit */
2015-08-25T15:06:38+00:00,677791957,674595100,0,Cyberbot II,Talk:Bill Gates,Notification of altered sources needing review ([[en:WP:PEACHY|Peachy 2.0 (alpha 8)]])
2014-06-27T23:07:28+00:00,614696517,614696470,0,Byronmercury,Talk:Herbert A. Simon,/* influenced by */
2015-09-20T07:47:49+00:00,681899463,681898013,0,BlackCab,Talk:Jehovah's Witnesses,/* Did Jehovah's Witnesses leaders orchestrated Martyrdom? */
2015-04-29T12:13:07+00:00,659861040,659772204,0,Jeffro77,Talk:Jehovah's Witnesses,/* Jehovah's Witnesses a Christian Denomination? */
2015-08-31T15:21:01+00:00,678776635,678773876,0,Gabby Merger,Talk:Jehovah's Witnesses,
2016-07-30T01:54:32+00:00,732163182,732161603,0,Jeffro77,Talk:Jehovah's Witnesses,/* Use of other translations */
2015-08-27T03:11:21+00:00,678051089,590312397,0,Cyberbot II,Talk:Lucent Technologies,Notification of altered sources needing review ([[en:WP:PEACHY|Peachy 2.0 (alpha 8)]])
2014-01-12T03:36:00+00:00,590312397,590312354,0,Zephyr103,Talk:Lucent Technologies,/* More logo speculation */
2015-08-06T15:57:10+00:00,674856329,628858157,0,FoCuSandLeArN,Talk:Milton Friedman,/* Free lunch */ new section
2013-07-31T04:49:06+00:00,566529534,475395834,0,BattyBot,Talk:National Coalition Party,[[WP:AWB/GF#Talk page general fixes|Talk page general fixes]] & other cleanup using [[Project:AWB|AWB]] (9369)
2016-02-27T23:16:54+00:00,707284661,702408537,0,Cyberbot II,Talk:Otto von Habsburg,Notification of altered sources needing review #IABot
2014-10-21T09:27:10+00:00,630493072,613303216,0,Jackiespeel,Talk:Otto von Habsburg,"/* Austria, Hungary, Croatia and Bohemia */"
2015-08-05T16:15:06+00:00,674703473,638116451,0,Bri,Talk:Paul Allen,Connected contributors
2015-10-17T11:06:49+00:00,686157217,566529534,0,Cyberbot II,Talk:National Coalition Party,Notification of altered sources needing review ([[en:WP:PEACHY|Peachy 2.0 (alpha 8)]])
2016-05-23T17:53:44+00:00,721723490,713683420,0,MarnetteD,Talk:Paul Allen,ref is a mess and thus unverifiable
2015-01-16T15:15:01+00:00,642774141,526471720,0,Nwlaw63,Talk:Rational expectations,
2015-05-20T19:10:08+00:00,663299070,642774141,0,Loraof,Talk:Rational expectations,Ce indentation so the page is readable
2015-06-02T08:56:14+00:00,665146750,665139958,0,David J Johnson,Talk:September 11 attacks,/* Heyo */ Delete nonsense.
2015-05-30T19:54:51+00:00,664749459,664747561,0,YeOldeGentleman,Talk:September 11 attacks,"/* Video Fraud */ Please, go away."
2016-06-01T08:24:32+00:00,723144906,723144745,0,Arjayay,Talk:September 11 attacks,Reverted edits by [[Special:Contribs/86.8.130.228|86.8.130.228]] ([[User talk:86.8.130.228|talk]]) to last version by Chewings72
2015-03-02T17:33:28+00:00,649560371,648720718,0,PBS,Talk:September 11 attacks,"/* The lady doth protest too much, methinks */"
2015-04-28T04:51:50+00:00,659620259,659618934,0,Cla68,Talk:September 11 attacks,/* Inaccuracy in lead */ thank you
2016-04-28T17:08:21+00:00,717598050,717585398,0,Mhhossein,Talk:September 11 attacks,/* Saudi role in September 11 attacks */
2016-01-15T21:19:14+00:00,700015102,697440112,0,Cyberbot II,Talk:September 11 attacks,Notification of altered sources needing review #IABot
2016-03-24T17:10:09+00:00,711751604,683899567,0,Mccallucc,Talk:Zbigniew Brzezinski,/* external link? */ new section
2015-01-02T16:15:51+00:00,640668821,640658989,0,Cannolis,Talk:September 11 attacks,/* Semi-protected edit request on 2 January 2015 */ Responded to edit request ([[WP:EPH|EPH]])
2015-07-22T04:28:59+00:00,672529668,672528852,0,Guccisamsclub,Talk:Zbigniew Brzezinski,/* Zbigniew Brzezinski openly and unashamedly admitted that he told China and Thailand to support Khmer Rouge because it was anti-Soviet */
2015-02-08T19:19:17+00:00,646226148,645678744,0,GyaroMaguus,Talk:September 11 attacks,corrected/updated 3rd RM link
2015-11-15T16:27:43+00:00,690773124,667748533,0,Tassedethe,The Garden of Allah (song),rm hat per [[WP:NAMB]]
2015-08-28T14:53:25+00:00,678301283,672529668,0,Cyberbot II,Talk:Zbigniew Brzezinski,Notification of altered sources needing review ([[en:WP:PEACHY|Peachy 2.0 (alpha 8)]])
2015-06-20T10:12:21+00:00,667748533,667747912,0,Richhoncho,The Garden of Allah (song),added [[Category:Songs written by Stan Lynch]] using [[WP:HC|HotCat]]
2014-11-13T11:23:05+00:00,633654675,607902755,0,76.246.7.214,The Garden of Allah (song),
2016-08-01T17:56:38+00:00,732547877,732420005,0,QatarStarsLeague,The Garden of Allah (song),"Disambiguated: [[Is This Love]] ‚Üí [[Is This Love (Whitesnake song)]], [[The Boys of Summer]] ‚Üí [[The Boys of Summer (song)]], [[Seer]] ‚Üí [[Clairvoyance]], [[SNAP]] ‚Üí [[Snap!]]"
2016-02-02T16:47:56+00:00,702955138,690773124,0,Just Opportunity,The Garden of Allah (song),"Caution against the point: ""I love THOSE Bavarians .......... so meticulous"". It refers to people. Must have been 007's 700 series if driven outside. Accessories include total jack."
2015-10-23T04:25:44+00:00,687073756,683411720,0,Cydebot,The Royal Scam,Robot - Removing category Albums certified platinum by the Recording Industry Association of America per [[WP:CFD|CFD]] at [[Wikipedia:Categories for discussion/Log/2015 October 15]].
2014-12-14T03:41:51+00:00,637997545,632176117,0,76.209.222.15,The Royal Scam,Correct statement about guitar content
2015-07-05T01:36:57+00:00,669991127,661809725,0,Apanuugpak,The Royal Scam,/* Track listing */ Cave of Altamira links.
2015-04-04T01:59:56+00:00,654859131,654761824,0,101.165.87.219,The Royal Scam,"/* Track listing */ Links only link back to the album page, making them redundant"
2015-05-11T07:53:24+00:00,661809725,659129951,0,65.44.98.196,The Royal Scam,
2015-04-08T10:25:39+00:00,655489088,655262521,0,101.165.87.219,The Royal Scam,Undid revision 655112323 by [[Special:Contributions/216.4.56.185|216.4.56.185]] ([[User talk:216.4.56.185|talk]])
2015-09-04T09:00:34+00:00,679395724,602481739,0,Dexbot,Time consistency (finance),Bot: Deprecating [[Template:Cite doi]] and some minor fixes
2014-04-02T22:18:00+00:00,602481739,593192074,0,Sargdub,Time consistency (finance),formatting
2015-06-28T21:16:39+00:00,669096553,668900465,0,Vysotsky,Tjalling Koopmans,commonscat
2015-10-15T03:18:18+00:00,685811161,669096553,0,Gobonobo,Tjalling Koopmans,replacing fair use image
2015-11-17T05:16:16+00:00,691028068,691003855,0,Caballero1967,User talk:Acroterion,/* Caonabo */ Thanks for the info
2015-07-07T04:31:43+00:00,670308091,669756636,0,MediaWiki message delivery,User talk:Acroterion,/* The Wikipedia Library needs you! */ new section
2015-09-15T03:29:04+00:00,681089963,680626874,0,Krett12,User talk:Acroterion,"/* You are an admin, right? */"
