timestamp,revid,parentid,sock,user,page,message
2008-02-14T14:07:50+00:00,191418215,191394656,1,Karmaisking,Talk:Credit crunch,/* Why the financial models don't work */
2008-02-14T11:32:23+00:00,191399779,191370742,1,Karmaisking,Talk:Criticism of fractional-reserve banking,/* Friedman et al claims */
2008-02-14T11:27:36+00:00,191399279,191060581,1,Karmaisking,Criticism of fractional-reserve banking,Added Forgotten War to another sentence that was a need of a reference.  This was the only reference that survived the genocide.  There are many others - check out Goldseek and Dailyreckoning.
2008-02-14T11:01:57+00:00,191396220,190612582,1,Karmaisking,User:Karmaisking,
2008-02-14T10:49:20+00:00,191394656,191393552,1,Karmaisking,Talk:Credit crunch,/* Why the financial models don't work */
2008-02-14T10:40:36+00:00,191393552,191393490,1,Karmaisking,Talk:Credit crunch,/* Why the financial models don't work */
2008-02-14T10:40:04+00:00,191393490,191392888,1,Karmaisking,Talk:Credit crunch,/* Why the financial models don't work */
2008-02-14T10:35:17+00:00,191392888,191391668,1,Karmaisking,Talk:Credit crunch,/* Why the financial models don't work */
2008-02-14T10:24:07+00:00,191391668,191391578,1,Karmaisking,Talk:Credit crunch,/* Why the financial models don't work */
2008-02-14T10:23:30+00:00,191391578,191363000,1,Karmaisking,Talk:Credit crunch,/* Why the financial models don't work */
2008-02-13T03:34:56+00:00,191062477,191062420,1,Karmaisking,Talk:Criticism of fractional-reserve banking,/* Friedman et al claims */
2008-02-13T03:34:36+00:00,191062420,191062369,1,Karmaisking,Talk:Criticism of fractional-reserve banking,/* Friedman et al claims */
2008-02-13T03:34:15+00:00,191062369,190939879,1,Karmaisking,Talk:Criticism of fractional-reserve banking,/* Friedman et al claims */
2008-02-13T03:22:28+00:00,191060581,191060347,1,Karmaisking,Criticism of fractional-reserve banking,"Sorry, had to re-phrase ""debt money"" which has been killed off as a concept on WP.  Replaced it with new phrase."
2008-02-13T03:21:10+00:00,191060347,191047696,1,Karmaisking,Criticism of fractional-reserve banking,"Re-inserted basic Rowbotham/Rothbard/von Mises definition.  Gregalton deleted so much, the term wasn't even defined."
2008-02-12T07:59:20+00:00,190857013,190856945,1,Karmaisking,Talk:Credit crunch,/* Why the financial models don't work */
2008-02-12T07:58:31+00:00,190856945,190856885,1,Karmaisking,Talk:Credit crunch,/* Why the financial models don't work */
2008-02-12T07:58:01+00:00,190856885,183501675,1,Karmaisking,Talk:Credit crunch,
2008-02-12T04:55:31+00:00,190834785,190834344,1,Karmaisking,Criticism of fractional-reserve banking,Broke up first para to keep it neat.  Even the carcass should look nice...
2008-02-12T04:54:23+00:00,190834344,190832131,1,Karmaisking,Criticism of fractional-reserve banking,"Added Rothbard and von Mises to first sentence - the most notable Austrian critics of ""unhinged"" frb"
2008-02-12T04:48:02+00:00,190832131,190761735,1,Karmaisking,Criticism of fractional-reserve banking,"Re-inserted links that were clearly not spam.  They are essential links, providing further research material for those interested in the expanding their understanding of this area of economics."
2008-02-12T01:07:20+00:00,190761735,190761069,1,Karmaisking,Criticism of fractional-reserve banking,"Minor clarification of one sentence in ""Basic debate"" section"
2008-02-12T01:03:53+00:00,190761069,190759047,1,Karmaisking,Criticism of fractional-reserve banking,Used existing reference (already approved by Gregalton) for another sentence in the same section.  No one should have a problem with this change.
2008-02-12T00:53:06+00:00,190759047,190612225,1,Karmaisking,Criticism of fractional-reserve banking,Minor edits to keep the carcass clean
2008-02-11T03:22:54+00:00,190537228,186521894,1,Karmaisking,Talk:Criticism of fractional-reserve banking,"/* Reliable sources and ""scholarly"" */"
2008-01-18T02:42:57+00:00,185127022,185126823,1,Karmaisking,User talk:Karmaisking,/* Parts of my own Talk Page deleted by editors who think they know better */
2008-01-18T02:41:51+00:00,185126823,185126403,1,Karmaisking,User talk:Karmaisking,/* Parts of my own Talk Page deleted by editors who think they know better */
2008-01-18T02:39:25+00:00,185126403,185126342,1,Karmaisking,User talk:Karmaisking,/* Parts of my own Talk Page deleted by editors who think they know better */
2008-01-18T02:39:01+00:00,185126342,184370368,1,Karmaisking,User talk:Karmaisking,/* Parts of my own Talk Page deleted by editors who think they know better */
2008-01-15T00:03:18+00:00,184370368,184051110,1,Karmaisking,User talk:Karmaisking,/* Parts of my own Talk Page deleted by editors who think they know better */
2008-01-11T03:33:25+00:00,183555419,183555275,1,Karmaisking,User talk:Karmaisking,/* Parts of my own Talk Page deleted by editors who think they know better */
2008-01-11T01:54:46+00:00,183539568,183539460,1,Karmaisking,User talk:Karmaisking,/* Parts of my own Talk Page deleted by editors who think they know better */
2008-01-11T01:28:51+00:00,183534585,183531578,1,Karmaisking,User talk:Karmaisking,/* Blocked */
2008-01-11T01:13:32+00:00,183531578,183527125,1,Karmaisking,User talk:Karmaisking,/* Parts of my own Talk Page deleted by editors who think they know better */
2008-01-11T00:21:52+00:00,183521571,183518151,1,Karmaisking,User talk:Karmaisking,
2008-01-10T23:56:42+00:00,183516279,183509480,1,Karmaisking,Criticism of fractional-reserve banking,Gregalton let's be reasonable.  You know for a fact that they haven't been discussed and other editors have pulled both you and Zenwhat up on this issue.  Edit war No.143 about to start?  How childish
2008-01-10T23:53:35+00:00,183515649,183515484,1,Karmaisking,User talk:Karmaisking,/* Parts of my own Talk Page deleted by editors who think they know better */
2008-01-10T23:52:53+00:00,183515484,183515205,1,Karmaisking,User talk:Karmaisking,/* Parts of my own Talk Page deleted by editors who think they know better */
2008-01-10T23:51:29+00:00,183515205,183515033,1,Karmaisking,User talk:Karmaisking,/* Parts of my own Talk Page deleted by editors who think they know better */
2008-01-10T23:50:36+00:00,183515033,183514882,1,Karmaisking,User talk:Karmaisking,/* Parts of my own Talk Page deleted by editors who think they know better */
2008-01-10T23:49:53+00:00,183514882,183514488,1,Karmaisking,User talk:Karmaisking,/* Parts of my own Talk Page deleted by editors who think they know better */
2008-01-10T23:47:54+00:00,183514488,183431996,1,Karmaisking,User talk:Karmaisking,/* Parts of my own Talk Page deleted by editors who think they know better */
2008-01-10T23:01:05+00:00,183504873,183504115,1,Karmaisking,Talk:Criticism of fractional-reserve banking,/* Gregalton gets active (again) */
2008-01-10T22:58:50+00:00,183504382,183492788,1,Karmaisking,Criticism of fractional-reserve banking,Let's start here shall we?  Nothing has been discussed on the talk page.  Gregalton went mad after this.
2008-01-10T22:57:32+00:00,183504115,183373734,1,Karmaisking,Talk:Criticism of fractional-reserve banking,
2008-01-10T22:47:03+00:00,183501675,183501389,1,Karmaisking,Talk:Credit crunch,/* Merge from Credit squeeze */
2008-01-10T22:45:44+00:00,183501389,183500962,1,Karmaisking,Talk:Credit crunch,/* Merge from Credit squeeze */
2008-01-10T22:43:52+00:00,183500962,183499593,1,Karmaisking,Talk:Credit crunch,/* Merge from Credit squeeze */
2008-01-10T22:37:58+00:00,183499593,183499469,1,Karmaisking,Talk:Credit crunch,/* Merge from Credit squeeze */
2008-01-10T22:37:25+00:00,183499469,183493904,1,Karmaisking,Talk:Credit crunch,/* Merge from Credit squeeze */
2008-01-10T12:43:18+00:00,183385245,183297792,1,Karmaisking,Fractional-reserve banking,/* Purpose */
2008-01-10T11:56:12+00:00,183379896,183345966,1,Karmaisking,User talk:Karmaisking,/* Parts of my own Talk Page deleted by editors who think they know better */
2008-01-10T11:25:23+00:00,183376675,183376499,1,Karmaisking,Talk:Fractional-reserve banking,/* here is the source for the table */
2008-01-10T11:23:57+00:00,183376499,183376345,1,Karmaisking,Talk:Fractional-reserve banking,/* here is the source for the table */
2008-01-10T11:22:32+00:00,183376345,183243172,1,Karmaisking,Talk:Fractional-reserve banking,/* here is the source for the table */
2008-01-10T10:55:49+00:00,183373734,183365707,1,Karmaisking,Talk:Criticism of fractional-reserve banking,/* Cites for Conventional Economic Analysis */
2008-01-10T10:35:36+00:00,183371683,183362708,1,Karmaisking,Credit crunch,
2008-01-10T09:25:46+00:00,183365707,183365287,1,Karmaisking,Talk:Criticism of fractional-reserve banking,/* Cites for Conventional Economic Analysis */
2008-01-10T09:20:01+00:00,183365287,183364759,1,Karmaisking,Talk:Criticism of fractional-reserve banking,/* Cites for Conventional Economic Analysis */
2008-01-10T09:13:51+00:00,183364759,183364581,1,Karmaisking,Talk:Criticism of fractional-reserve banking,/* Cites for Conventional Economic Analysis */
2008-01-10T09:11:54+00:00,183364581,183251732,1,Karmaisking,Talk:Criticism of fractional-reserve banking,
2008-01-10T08:50:02+00:00,183362708,183355808,1,Karmaisking,Credit crunch,
2008-01-10T07:26:35+00:00,183355808,183355643,1,Karmaisking,Credit crunch,
2008-01-10T07:24:45+00:00,183355643,183354850,1,Karmaisking,Credit crunch,
2008-01-10T07:16:32+00:00,183354850,183354291,1,Karmaisking,Credit crunch,
2008-01-10T07:14:52+00:00,183354698,183354674,1,Karmaisking,Talk:Credit crunch,/* The links */
2008-01-10T07:14:38+00:00,183354674,180789151,1,Karmaisking,Talk:Credit crunch,/* The links */
2008-01-10T07:10:29+00:00,183354291,183354257,1,Karmaisking,Credit crunch,
2008-01-10T07:09:55+00:00,183354257,182811367,1,Karmaisking,Credit crunch,
2008-01-10T05:53:32+00:00,183345966,183343139,1,Karmaisking,User talk:Karmaisking,/* Parts of my own Talk Page deleted by editors who think they know better */
2008-01-10T05:28:46+00:00,183343139,183342279,1,Karmaisking,User talk:Karmaisking,/* Parts of my own Talk Page deleted by editors who think they know better */
2008-01-10T05:21:33+00:00,183342279,183342090,1,Karmaisking,User talk:Karmaisking,/* Parts of my own Talk Page deleted by editors who think they know better */
2008-01-10T05:19:57+00:00,183342090,183341720,1,Karmaisking,User talk:Karmaisking,/* Parts of my own Talk Page deleted by editors who think they know better */
2008-01-10T05:16:51+00:00,183341720,183270147,1,Karmaisking,User talk:Karmaisking,/* Parts of my own Talk Page deleted by editors who think they know better */
2008-01-09T21:41:07+00:00,183258539,183257214,1,Karmaisking,Criticism of fractional-reserve banking,"I'll put Griffin link back in, but he's by not prominent in the field.  Who can help with the cites in ""Conventional Analysis""?  Where is a disciple of ""pretty-boy"" Keynes when you need one?"
2008-01-09T21:34:12+00:00,183257214,182899436,1,Karmaisking,Criticism of fractional-reserve banking,Creature probably does exist but not on this page
2008-01-09T21:08:16+00:00,183251987,183250074,1,Karmaisking,User talk:Karmaisking,/* Parts of my own Talk Page deleted by editors who think they know better */
2008-01-09T21:07:06+00:00,183251732,182658820,1,Karmaisking,Talk:Criticism of fractional-reserve banking,/* Text removed on agriculture - no connection to sources */
2008-01-09T20:59:43+00:00,183250074,183132196,1,Karmaisking,User talk:Karmaisking,/* Parts of my own Talk Page deleted by editors who think they know better */
2008-01-09T07:04:01+00:00,183132196,183131562,1,Karmaisking,User talk:Karmaisking,/* Parts of my own Talk Page deleted by editors who think they know better */
2008-01-09T06:57:30+00:00,183131562,183129969,1,Karmaisking,User talk:Karmaisking,/* Parts of my own Talk Page deleted by editors who think they know better */
2008-01-09T06:40:43+00:00,183129969,183088963,1,Karmaisking,User talk:Karmaisking,
2008-01-09T01:47:15+00:00,183087873,183086102,1,Karmaisking,User talk:Coren,/* Huh?? */
2008-01-09T01:37:02+00:00,183086102,183068389,1,Karmaisking,User talk:Coren,
2008-01-08T23:21:54+00:00,183060217,182980619,1,Karmaisking,User talk:Karmaisking,"This is a ""useful"" contribution and in no way violates any WP guidelines.  If this gets deleted, Karma will not be happy and there will be a price to be paid."
2008-01-03T12:32:29+00:00,181846048,181836937,1,Karmaisking,User talk:Karmaisking,/* Blocked for sockpuppetry */
2008-01-03T11:06:06+00:00,181836937,181836749,1,Karmaisking,User talk:Karmaisking,/* Blocked for sockpuppetry */
2008-01-03T11:04:30+00:00,181836749,181836355,1,Karmaisking,User talk:Karmaisking,/* Blocked for sockpuppetry */
2008-01-03T11:00:54+00:00,181836355,181836167,1,Karmaisking,User talk:Karmaisking,/* Blocked for sockpuppetry */
2008-01-03T10:59:04+00:00,181836167,181835991,1,Karmaisking,User talk:Karmaisking,/* Blocked for sockpuppetry */
2008-01-03T10:57:09+00:00,181835991,181835854,1,Karmaisking,User talk:Karmaisking,/* Blocked for sockpuppetry */
2008-01-03T10:55:50+00:00,181835854,181835753,1,Karmaisking,User talk:Karmaisking,/* Blocked for sockpuppetry */
2008-01-03T10:54:42+00:00,181835753,181835111,1,Karmaisking,User talk:Karmaisking,/* Blocked for sockpuppetry */
2008-01-03T10:48:44+00:00,181835111,181834922,1,Karmaisking,User talk:Karmaisking,/* Blocked for sockpuppetry */
2008-01-03T10:47:00+00:00,181834922,181834572,1,Karmaisking,User talk:Karmaisking,/* Blocked for sockpuppetry */
2008-01-03T10:43:52+00:00,181834572,181834438,1,Karmaisking,User talk:Karmaisking,/* Blocked for sockpuppetry */
2008-01-03T10:42:34+00:00,181834438,181834249,1,Karmaisking,User talk:Karmaisking,/* Blocked for sockpuppetry */
2008-01-03T10:40:50+00:00,181834249,181833914,1,Karmaisking,User talk:Karmaisking,/* Blocked for sockpuppetry */
2008-01-03T10:37:42+00:00,181833914,181833785,1,Karmaisking,User talk:Karmaisking,/* Blocked for sockpuppetry */
2008-01-03T10:36:25+00:00,181833785,181833423,1,Karmaisking,User talk:Karmaisking,/* Blocked for sockpuppetry */
2008-01-03T10:32:34+00:00,181833423,181833365,1,Karmaisking,User talk:Karmaisking,/* Blocked for sockpuppetry */
2008-01-03T10:32:00+00:00,181833365,181833082,1,Karmaisking,User talk:Karmaisking,/* Blocked for sockpuppetry */
2008-01-03T10:29:13+00:00,181833082,181832948,1,Karmaisking,User talk:Karmaisking,/* Blocked for sockpuppetry */
2008-01-03T10:27:45+00:00,181832948,181832459,1,Karmaisking,User talk:Karmaisking,/* Blocked for sockpuppetry */
2008-01-03T10:22:52+00:00,181832459,181832366,1,Karmaisking,User talk:Karmaisking,/* Blocked for sockpuppetry */
2008-01-03T10:21:49+00:00,181832366,181810444,1,Karmaisking,User talk:Karmaisking,/* Blocked for sockpuppetry */
2008-01-03T07:02:00+00:00,181810444,181809279,1,Karmaisking,User talk:Karmaisking,/* Blocked for sockpuppetry */
2008-01-03T06:55:29+00:00,181809279,181808607,1,Karmaisking,User talk:Karmaisking,/* Blocked for sockpuppetry */
2008-01-03T06:51:52+00:00,181808607,181806376,1,Karmaisking,User talk:Karmaisking,/* Blocked for sockpuppetry */
2008-01-03T06:39:32+00:00,181806376,181806288,1,Karmaisking,User talk:Karmaisking,/* Blocked for sockpuppetry */
2008-01-03T06:39:02+00:00,181806288,181806131,1,Karmaisking,User talk:Karmaisking,/* Blocked for sockpuppetry */
2008-01-03T06:38:03+00:00,181806131,181806074,1,Karmaisking,User talk:Karmaisking,/* Blocked for sockpuppetry */
2008-01-03T06:37:37+00:00,181806074,181805366,1,Karmaisking,User talk:Karmaisking,/* Blocked for sockpuppetry */
2008-01-03T06:32:43+00:00,181805366,181802890,1,Karmaisking,User talk:Karmaisking,/* Blocked for sockpuppetry */
2008-01-03T06:18:14+00:00,181802890,181802434,1,Karmaisking,User talk:Karmaisking,/* Blocked for sockpuppetry */
2008-01-03T06:15:48+00:00,181802434,181802251,1,Karmaisking,User talk:Karmaisking,/* Blocked for sockpuppetry */
2008-01-03T06:14:45+00:00,181802251,181799540,1,Karmaisking,User talk:Karmaisking,/* Blocked for sockpuppetry */
2008-01-03T06:00:11+00:00,181799540,181798644,1,Karmaisking,User talk:Karmaisking,/* Blocked for sockpuppetry */
2008-01-03T05:55:18+00:00,181798644,181798439,1,Karmaisking,User talk:Karmaisking,/* Blocked for sockpuppetry */
2008-01-03T05:54:14+00:00,181798439,181794580,1,Karmaisking,User talk:Karmaisking,/* Blocked for sockpuppetry */
2008-01-03T05:29:56+00:00,181794580,181794465,1,Karmaisking,User talk:Karmaisking,/* Blocked for sockpuppetry */
2008-01-03T05:28:55+00:00,181794465,181793890,1,Karmaisking,User talk:Karmaisking,/* Blocked for sockpuppetry */
2008-01-03T05:24:15+00:00,181793890,181793825,1,Karmaisking,User talk:Karmaisking,/* Blocked for sockpuppetry */
2008-01-03T05:23:40+00:00,181793825,181793686,1,Karmaisking,User talk:Karmaisking,/* Blocked for sockpuppetry */
2008-01-03T05:22:24+00:00,181793686,181792276,1,Karmaisking,User talk:Karmaisking,/* Blocked for sockpuppetry */
2008-01-03T05:11:21+00:00,181792276,181792181,1,Karmaisking,User talk:Karmaisking,/* Blocked for sockpuppetry */
2008-01-03T05:10:28+00:00,181792181,181791307,1,Karmaisking,User talk:Karmaisking,/* Blocked for sockpuppetry */
2008-01-03T05:03:48+00:00,181791307,181790593,1,Karmaisking,User talk:Karmaisking,/* Blocked for sockpuppetry */
2008-01-03T04:58:53+00:00,181790593,181782515,1,Karmaisking,User talk:Karmaisking,/* Blocked for sockpuppetry */
2008-01-03T03:57:02+00:00,181782515,181782291,1,Karmaisking,User talk:Karmaisking,/* Blocked for sockpuppetry */
2008-01-03T03:55:28+00:00,181782291,181782124,1,Karmaisking,User talk:Karmaisking,/* Blocked for sockpuppetry */
2008-01-03T03:54:09+00:00,181782124,181781414,1,Karmaisking,User talk:Karmaisking,/* Blocked for sockpuppetry */
2008-01-03T03:49:24+00:00,181781414,181780854,1,Karmaisking,User talk:Karmaisking,/* Blocked for sockpuppetry */
2008-01-03T03:45:34+00:00,181780854,181780758,1,Karmaisking,User talk:Karmaisking,/* Blocked for sockpuppetry */
2008-01-03T03:44:56+00:00,181780758,181780548,1,Karmaisking,User talk:Karmaisking,/* Blocked for sockpuppetry */
2008-01-03T03:43:27+00:00,181780548,181780485,1,Karmaisking,User talk:Karmaisking,/* Blocked for sockpuppetry */
2008-01-03T03:43:00+00:00,181780485,181773927,1,Karmaisking,User talk:Karmaisking,/* Blocked for sockpuppetry */
2008-01-03T02:59:00+00:00,181773927,181773859,1,Karmaisking,User talk:Karmaisking,/* Blocked for sockpuppetry */
2008-01-03T02:58:31+00:00,181773859,181767182,1,Karmaisking,User talk:Karmaisking,/* Blocked for sockpuppetry */
2008-01-03T02:16:57+00:00,181767182,181760079,1,Karmaisking,User talk:Karmaisking,/* Blocked for sockpuppetry */
2008-01-03T01:33:27+00:00,181760079,181759952,1,Karmaisking,User talk:Karmaisking,/* Blocked for sockpuppetry */
2008-01-03T01:32:37+00:00,181759952,181759764,1,Karmaisking,User talk:Karmaisking,/* Blocked for sockpuppetry */
2008-01-03T01:31:31+00:00,181759764,181759355,1,Karmaisking,User talk:Karmaisking,/* Blocked for sockpuppetry */
2008-01-03T01:29:10+00:00,181759355,181758808,1,Karmaisking,User talk:Karmaisking,/* Blocked for sockpuppetry */
2008-01-03T01:26:29+00:00,181758808,181758618,1,Karmaisking,User talk:Karmaisking,/* Blocked for sockpuppetry */
2008-01-03T01:25:33+00:00,181758618,181758534,1,Karmaisking,User talk:Karmaisking,/* Blocked for sockpuppetry */
2008-01-03T01:25:04+00:00,181758534,181737263,1,Karmaisking,User talk:Karmaisking,/* Blocked for sockpuppetry */
2008-01-02T23:40:23+00:00,181737263,181736939,1,Karmaisking,User talk:Karmaisking,/* Blocked for sockpuppetry */
2008-01-02T23:39:01+00:00,181736939,181736013,1,Karmaisking,User talk:Karmaisking,/* Blocked for sockpuppetry */
2008-01-02T23:35:17+00:00,181736013,181735864,1,Karmaisking,User talk:Karmaisking,/* Blocked for sockpuppetry */
2008-01-02T23:34:41+00:00,181735864,181734157,1,Karmaisking,User talk:Karmaisking,/* Blocked for sockpuppetry */
2008-01-02T23:27:28+00:00,181734157,181733341,1,Karmaisking,User talk:Karmaisking,/* Blocked for sockpuppetry */
2008-01-02T23:24:08+00:00,181733341,181729557,1,Karmaisking,User talk:Karmaisking,/* Blocked for sockpuppetry */
2008-01-02T23:08:41+00:00,181729557,181728775,1,Karmaisking,User talk:Karmaisking,/* Blocked for sockpuppetry */
2008-01-02T23:05:10+00:00,181728775,181728688,1,Karmaisking,User talk:Karmaisking,/* Blocked for sockpuppetry */
2008-01-02T23:04:46+00:00,181728688,181728508,1,Karmaisking,User talk:Karmaisking,/* Blocked for sockpuppetry */
2008-01-02T23:03:57+00:00,181728508,181728399,1,Karmaisking,User talk:Karmaisking,/* Blocked for sockpuppetry */
2008-01-02T23:03:26+00:00,181728399,181728275,1,Karmaisking,User talk:Karmaisking,/* Blocked for sockpuppetry */
2008-01-02T23:02:51+00:00,181728275,181728171,1,Karmaisking,User talk:Karmaisking,/* Blocked for sockpuppetry */
2008-01-02T23:02:26+00:00,181728171,181727957,1,Karmaisking,User talk:Karmaisking,/* Blocked for sockpuppetry */
2008-01-02T23:01:35+00:00,181727957,181724926,1,Karmaisking,User talk:Karmaisking,/* Blocked for sockpuppetry */
2008-01-02T22:49:09+00:00,181724926,181724811,1,Karmaisking,User talk:Karmaisking,/* Blocked for sockpuppetry */
2008-01-02T22:48:44+00:00,181724811,181722634,1,Karmaisking,User talk:Karmaisking,/* Blocked for sockpuppetry */
2008-01-02T22:40:27+00:00,181722634,181548060,1,Karmaisking,User talk:Karmaisking,/* Blocked for sockpuppetry */
2008-01-02T06:35:25+00:00,181548060,181546203,1,Karmaisking,User talk:Karmaisking,/* Blocked for sockpuppetry */
2008-01-02T06:26:25+00:00,181546203,181545252,1,Karmaisking,User talk:Karmaisking,/* Blocked for sockpuppetry */
2008-01-02T06:21:39+00:00,181545252,181371142,1,Karmaisking,User talk:Karmaisking,/* Blocked for sockpuppetry */
2008-01-01T11:58:17+00:00,181371142,181369346,1,Karmaisking,User talk:Karmaisking,/* Blocked for sockpuppetry */
2008-01-01T11:37:44+00:00,181369346,181369292,1,Karmaisking,User talk:Karmaisking,/* Blocked for sockpuppetry */
2008-01-01T11:37:11+00:00,181369292,181369242,1,Karmaisking,User talk:Karmaisking,/* Blocked for sockpuppetry */
2008-01-01T11:36:27+00:00,181369242,181369034,1,Karmaisking,User talk:Karmaisking,/* Blocked for sockpuppetry */
2008-01-01T11:34:12+00:00,181369034,181368988,1,Karmaisking,User talk:Karmaisking,/* Blocked for sockpuppetry */
2008-01-01T11:33:33+00:00,181368988,181368919,1,Karmaisking,User talk:Karmaisking,/* Blocked for sockpuppetry */
2008-01-01T11:32:46+00:00,181368919,181368861,1,Karmaisking,User talk:Karmaisking,/* Blocked for sockpuppetry */
2008-01-01T11:32:01+00:00,181368861,181368714,1,Karmaisking,User talk:Karmaisking,/* Blocked for sockpuppetry */
2008-01-01T11:30:17+00:00,181368714,181368594,1,Karmaisking,User talk:Karmaisking,/* Blocked for sockpuppetry */
2008-01-01T11:28:41+00:00,181368594,181368446,1,Karmaisking,User talk:Karmaisking,/* Blocked for sockpuppetry */
2008-01-01T11:27:02+00:00,181368446,181368324,1,Karmaisking,User talk:Karmaisking,/* Blocked for sockpuppetry */
2008-01-01T11:25:52+00:00,181368324,181368268,1,Karmaisking,User talk:Karmaisking,/* Blocked for sockpuppetry */
2008-01-01T11:25:08+00:00,181368268,181368185,1,Karmaisking,User talk:Karmaisking,/* Blocked for sockpuppetry */
2008-01-01T11:24:10+00:00,181368185,181368111,1,Karmaisking,User talk:Karmaisking,/* Blocked for sockpuppetry */
2008-01-01T11:23:11+00:00,181368111,181367874,1,Karmaisking,User talk:Karmaisking,/* Blocked for sockpuppetry */
2008-01-01T11:20:12+00:00,181367874,181367725,1,Karmaisking,User talk:Karmaisking,/* Blocked for sockpuppetry */
2008-01-01T11:18:06+00:00,181367725,181367665,1,Karmaisking,User talk:Karmaisking,/* Blocked for sockpuppetry */
2008-01-01T11:17:16+00:00,181367665,181367509,1,Karmaisking,User talk:Karmaisking,/* Blocked for sockpuppetry */
2008-01-01T11:15:23+00:00,181367509,181367345,1,Karmaisking,User talk:Karmaisking,/* Blocked for sockpuppetry */
2008-01-01T11:12:53+00:00,181367345,181365534,1,Karmaisking,User talk:Karmaisking,/* Blocked for sockpuppetry */
2008-01-01T10:47:44+00:00,181365534,181365368,1,Karmaisking,User talk:Karmaisking,/* Blocked for sockpuppetry */
2008-01-01T10:45:51+00:00,181365368,181365327,1,Karmaisking,User talk:Karmaisking,/* Blocked for sockpuppetry */
2008-01-01T10:45:22+00:00,181365327,181365269,1,Karmaisking,User talk:Karmaisking,/* Blocked for sockpuppetry */
2008-01-01T10:44:39+00:00,181365269,181364285,1,Karmaisking,User talk:Karmaisking,/* Blocked for sockpuppetry */
2008-01-01T10:31:25+00:00,181364285,181364157,1,Karmaisking,User talk:Karmaisking,/* Blocked for sockpuppetry */
2008-01-01T10:29:42+00:00,181364157,181363968,1,Karmaisking,User talk:Karmaisking,/* Blocked for sockpuppetry */
2008-01-01T10:27:19+00:00,181363968,181362049,1,Karmaisking,User talk:Karmaisking,/* Blocked for sockpuppetry */
2008-01-01T10:03:40+00:00,181362049,181360417,1,Karmaisking,User talk:Karmaisking,
2008-01-01T09:43:09+00:00,181360417,181360279,1,Karmaisking,User talk:Karmaisking,/* Blocked for sockpuppetry */
2008-01-01T09:41:33+00:00,181360279,181360240,1,Karmaisking,User talk:Karmaisking,/* Blocked for sockpuppetry */
2008-01-01T09:40:58+00:00,181360240,181360185,1,Karmaisking,User talk:Karmaisking,/* Blocked for sockpuppetry */
2008-01-01T09:40:20+00:00,181360185,181360134,1,Karmaisking,User talk:Karmaisking,/* Blocked for sockpuppetry */
2008-01-01T09:39:51+00:00,181360134,181293892,1,Karmaisking,User talk:Karmaisking,/* Blocked for sockpuppetry */
2007-12-30T23:50:45+00:00,181083430,181083368,1,Karmaisking,User talk:Karmaisking,/* December 2007 */
2007-12-30T23:50:14+00:00,181083368,181082627,1,Karmaisking,User talk:Karmaisking,
2007-12-30T23:45:34+00:00,181082627,180998513,1,Karmaisking,User talk:Karmaisking,
2007-12-30T11:25:41+00:00,180966189,180965730,1,Karmaisking,User talk:Karmaisking,
2007-12-30T09:20:56+00:00,180956346,180948695,1,Karmaisking,User talk:Karmaisking,
2007-12-30T07:48:37+00:00,180947859,180933533,1,Karmaisking,User talk:Karmaisking,/* December 2007 */
2007-12-30T02:44:49+00:00,180908695,180887204,1,Karmaisking,User talk:Karmaisking,
2007-12-30T00:08:35+00:00,180887204,180811660,1,Karmaisking,User talk:Karmaisking,/* December 2007 */
2007-12-29T12:37:13+00:00,180788609,180397463,1,Karmaisking,Talk:Fractional-reserve banking,/* here is the source for the table */
2007-12-29T12:13:56+00:00,180786537,180784748,1,Karmaisking,Criticism of fractional-reserve banking,Many citations missing from the first section...
2007-12-29T11:19:35+00:00,180781765,180781485,1,Karmaisking,Talk:Credit crunch,/* The links */
2007-12-29T11:16:18+00:00,180781485,180757700,1,Karmaisking,Talk:Credit crunch,
2007-12-29T11:08:36+00:00,180780756,180780697,1,Karmaisking,Wikipedia:Articles for deletion/Debt money,/* Debt money */
2007-12-29T11:08:03+00:00,180780697,180780625,1,Karmaisking,Wikipedia:Articles for deletion/Debt money,/* Debt money */
2007-12-29T11:07:14+00:00,180780625,180780202,1,Karmaisking,Wikipedia:Articles for deletion/Debt money,/* Debt money */
2007-12-29T11:02:37+00:00,180780202,180650791,1,Karmaisking,Wikipedia:Articles for deletion/Debt money,
2007-12-29T10:45:23+00:00,180778731,180778437,1,Karmaisking,Talk:Criticism of fractional-reserve banking,/* Text removed on agriculture - no connection to sources */
2007-12-29T10:41:46+00:00,180778437,180778249,1,Karmaisking,Talk:Criticism of fractional-reserve banking,"/* Reliable sources and ""scholarly"" */"
2007-12-29T10:39:36+00:00,180778249,180731258,1,Karmaisking,Talk:Criticism of fractional-reserve banking,"/* Reliable sources and ""scholarly"" */"
2007-12-29T10:07:30+00:00,180775780,180688156,1,Karmaisking,Criticism of fractional-reserve banking,
2007-12-29T03:11:50+00:00,180733144,180726993,1,Karmaisking,Talk:Credit crunch,/* Kellogg's Credit Crunch? */
2007-12-29T02:56:36+00:00,180731258,180730536,1,Karmaisking,Talk:Criticism of fractional-reserve banking,/* Text removed on agriculture - no connection to sources */
2007-12-29T02:50:54+00:00,180730536,180730034,1,Karmaisking,Talk:Criticism of fractional-reserve banking,/* Text removed on agriculture - no connection to sources */
2007-12-29T02:46:51+00:00,180730034,180682000,1,Karmaisking,Talk:Criticism of fractional-reserve banking,/* Text removed on agriculture - no connection to sources */
2007-12-29T02:23:26+00:00,180726993,180726875,1,Karmaisking,Talk:Credit crunch,/* Kellogg's Credit Crunch? */
2007-12-29T02:22:22+00:00,180726875,180726761,1,Karmaisking,Talk:Credit crunch,/* Kellogg's Credit Crunch? */
2007-12-29T02:21:32+00:00,180726761,180726744,1,Karmaisking,Talk:Credit crunch,
2007-12-29T02:21:21+00:00,180726744,180726738,1,Karmaisking,Talk:Credit crunch,
2007-12-29T02:21:20+00:00,180726738,180613903,1,Karmaisking,Talk:Credit crunch,
2007-12-28T13:55:32+00:00,180607543,180598412,1,Karmaisking,Criticism of fractional-reserve banking,/* Economic and political criticisms */
2007-12-28T13:06:30+00:00,180602274,180599178,1,Karmaisking,Talk:Criticism of fractional-reserve banking,/* Text removed on agriculture - no connection to sources */
2007-12-28T12:34:23+00:00,180599178,180594224,1,Karmaisking,Talk:Criticism of fractional-reserve banking,"/* Reliable sources and ""scholarly"" */"
2007-12-28T12:26:43+00:00,180598412,180577376,1,Karmaisking,Criticism of fractional-reserve banking,/* Economic and political criticisms */
2007-12-28T12:07:13+00:00,180596460,180596258,1,Karmaisking,Talk:Credit crunch,/* The links */
2007-12-28T12:05:16+00:00,180596258,179586907,1,Karmaisking,Talk:Credit crunch,/* External links */
2007-12-28T11:44:49+00:00,180594224,180593965,1,Karmaisking,Talk:Criticism of fractional-reserve banking,/* Text removed on agriculture - no connection to sources */
2007-12-28T11:41:58+00:00,180593965,180593762,1,Karmaisking,Talk:Criticism of fractional-reserve banking,/* Text removed on agriculture - no connection to sources */
2007-12-28T11:39:40+00:00,180593762,180593476,1,Karmaisking,Talk:Criticism of fractional-reserve banking,/* How to improve this article */
2007-12-28T11:36:29+00:00,180593476,180592907,1,Karmaisking,Talk:Criticism of fractional-reserve banking,/* How to improve this article */
2007-12-28T11:30:09+00:00,180592907,180592692,1,Karmaisking,Talk:Criticism of fractional-reserve banking,/* Text removed on agriculture - no connection to sources */
2007-12-28T11:27:51+00:00,180592692,180592524,1,Karmaisking,Talk:Criticism of fractional-reserve banking,/* Text removed on agriculture - no connection to sources */
2007-12-28T11:26:04+00:00,180592524,180587459,1,Karmaisking,Talk:Criticism of fractional-reserve banking,
2007-12-28T10:35:27+00:00,180587459,180543529,1,Karmaisking,Talk:Criticism of fractional-reserve banking,/* Another source issue */
2007-12-28T10:19:49+00:00,180586073,180539169,1,Karmaisking,Wikipedia:Articles for deletion/Debt money,
2007-12-27T13:13:07+00:00,180415724,180415638,1,Karmaisking,User talk:Gregalton,/* Debt-based money */
2007-12-27T13:12:13+00:00,180415638,180415565,1,Karmaisking,User talk:Gregalton,/* Debt-based money */
2007-12-27T13:11:37+00:00,180415565,180228776,1,Karmaisking,User talk:Gregalton,/* Debt-based money */
2007-12-27T12:39:19+00:00,180412276,180412104,1,Karmaisking,Talk:Criticism of fractional-reserve banking,/* Text removed on agriculture - no connection to sources */
2007-12-27T12:37:21+00:00,180412104,180411471,1,Karmaisking,Talk:Criticism of fractional-reserve banking,/* Text removed on agriculture - no connection to sources */
2007-12-27T12:30:06+00:00,180411471,180410240,1,Karmaisking,Talk:Criticism of fractional-reserve banking,/* Text removed on agriculture - no connection to sources */
2007-12-27T07:58:21+00:00,180389041,180388658,1,Karmaisking,Talk:Criticism of fractional-reserve banking,/* Text removed on agriculture - no connection to sources */
2007-12-27T07:53:33+00:00,180388658,180388574,1,Karmaisking,Talk:Criticism of fractional-reserve banking,/* Text removed on agriculture - no connection to sources */
2007-12-27T07:52:15+00:00,180388574,180375265,1,Karmaisking,Talk:Criticism of fractional-reserve banking,/* Text removed on agriculture - no connection to sources */
2007-12-27T05:08:23+00:00,180373869,180372747,1,Karmaisking,Criticism of fractional-reserve banking,Added references and re-inserted the section on agflation.  Please see talk page.
2007-12-27T04:58:26+00:00,180372747,180372594,1,Karmaisking,Criticism of fractional-reserve banking,/* Economic and political criticisms */
2007-12-27T04:57:05+00:00,180372594,180372425,1,Karmaisking,Criticism of fractional-reserve banking,/* Economic and political criticisms */
2007-12-27T04:55:28+00:00,180372425,180330369,1,Karmaisking,Criticism of fractional-reserve banking,
2007-12-27T03:33:58+00:00,180362309,180354553,1,Karmaisking,Talk:Criticism of fractional-reserve banking,/* Text removed on agriculture - no connection to sources */
2007-12-27T02:28:24+00:00,180354553,180354289,1,Karmaisking,Talk:Criticism of fractional-reserve banking,/* Text removed on agriculture - no connection to sources */
2007-12-27T02:26:12+00:00,180354289,180354108,1,Karmaisking,Talk:Criticism of fractional-reserve banking,/* Text removed on agriculture - no connection to sources */
2007-12-27T02:24:37+00:00,180354108,180332469,1,Karmaisking,Talk:Criticism of fractional-reserve banking,
2007-12-26T12:21:36+00:00,180240890,180240764,1,Karmaisking,Talk:Fractional-reserve banking,/* Lets keep the table and graph that explains the essence of the fractional reserve system */
2007-12-26T12:19:55+00:00,180240764,180228498,1,Karmaisking,Talk:Fractional-reserve banking,/* Lets keep the table and graph that explains the essence of the fractional reserve system */
2007-12-26T12:00:36+00:00,180239170,180234949,1,Karmaisking,Criticism of fractional-reserve banking,Cite added.
2007-12-26T11:44:33+00:00,180237861,180237793,1,Karmaisking,Talk:Criticism of fractional-reserve banking,
2007-12-26T11:43:47+00:00,180237793,180235854,1,Karmaisking,Talk:Criticism of fractional-reserve banking,"/* Reliable sources and ""scholarly"" */"
2007-12-26T11:07:12+00:00,180235040,180234726,1,Karmaisking,Talk:Criticism of fractional-reserve banking,"/* Reliable sources and ""scholarly"" */"
2007-12-26T11:05:51+00:00,180234949,179774666,1,Karmaisking,Criticism of fractional-reserve banking,/* Potential societal impact */
2007-12-26T11:03:11+00:00,180234726,180230411,1,Karmaisking,Talk:Criticism of fractional-reserve banking,"/* Reliable sources and ""scholarly"" */"
2007-12-26T09:32:02+00:00,180227630,180133434,1,Karmaisking,Credit crunch,"If this damn Long Island website gets put back up, I'm putting them ALL back - Cannibal Montco or no Cannibal Montco.  L.I. is TRIVIAL."
2007-12-26T08:59:20+00:00,180225353,180053115,1,Karmaisking,Fractional-reserve banking,This section is CRUCIAL for students to gain an understanding of the dynamics of frb and NO ONE has adequately explained why it has been deleted. Please explain on the talk page BEFORE deleting again.
2007-12-26T08:52:23+00:00,180224860,180121760,1,Karmaisking,User talk:Gregalton,/* Debt-based money */
2007-12-26T07:49:18+00:00,180219096,180218886,1,Karmaisking,Talk:Criticism of fractional-reserve banking,"/* Reliable sources and ""scholarly"" */"
2007-12-26T07:46:45+00:00,180218886,180218643,1,Karmaisking,Talk:Criticism of fractional-reserve banking,"/* Reliable sources and ""scholarly"" */"
2007-12-26T07:43:51+00:00,180218643,180218079,1,Karmaisking,Talk:Criticism of fractional-reserve banking,"/* Reliable sources and ""scholarly"" */"
2007-12-26T07:37:21+00:00,180218079,180182308,1,Karmaisking,Talk:Criticism of fractional-reserve banking,"/* Reliable sources and ""scholarly"" */"
2007-12-26T01:24:13+00:00,180177900,180177710,1,Karmaisking,Talk:Criticism of fractional-reserve banking,"/* Reliable sources and ""scholarly"" */"
2007-12-26T01:22:29+00:00,180177710,180121426,1,Karmaisking,Talk:Criticism of fractional-reserve banking,"/* Reliable sources and ""scholarly"" */"
2007-12-25T15:43:43+00:00,180113620,180113577,1,Karmaisking,Talk:Fractional-reserve banking,/* Lets keep the table and graph that explains the essence of the fractional reserve system */
2007-12-25T15:42:58+00:00,180113577,180113541,1,Karmaisking,Talk:Fractional-reserve banking,/* Lets keep the table and graph that explains the essence of the fractional reserve system */
2007-12-25T15:42:25+00:00,180113541,180031122,1,Karmaisking,Talk:Fractional-reserve banking,/* Lets keep the table and graph that explains the essence of the fractional reserve system */
2007-12-25T15:37:51+00:00,180113196,180112520,1,Karmaisking,User talk:Gregalton,/* Debt-based money */
2007-12-25T15:30:06+00:00,180112520,179883694,1,Karmaisking,User talk:Gregalton,/* Debt-based money */
2007-12-25T14:33:01+00:00,180108336,180108266,1,Karmaisking,Talk:Criticism of fractional-reserve banking,"/* Reliable sources and ""scholarly"" */"
2007-12-25T14:31:24+00:00,180108266,180108148,1,Karmaisking,Talk:Criticism of fractional-reserve banking,
2007-12-25T14:28:53+00:00,180108148,179605163,1,Karmaisking,Talk:Criticism of fractional-reserve banking,"/* Reliable sources and ""scholarly"" */"
2007-12-23T12:48:29+00:00,179774666,179702515,1,Karmaisking,Criticism of fractional-reserve banking,/* Conclusion */
2007-12-23T01:03:34+00:00,179702515,179604771,1,Karmaisking,Criticism of fractional-reserve banking,/* Potential societal impact */
2007-12-22T12:27:14+00:00,179576049,179552809,1,Karmaisking,Talk:Credit crunch,
2007-12-22T08:51:49+00:00,179556423,179556388,1,Karmaisking,Criticism of fractional-reserve banking,/* Potential societal impact */
2007-12-22T08:51:25+00:00,179556388,179556285,1,Karmaisking,Criticism of fractional-reserve banking,/* Potential societal impact */
2007-12-22T08:50:08+00:00,179556285,179300265,1,Karmaisking,Criticism of fractional-reserve banking,The Robert K. Landis piece is a scholarly study and possibly the best analysis of the modern monetary system in existence.  Delete this and I will be a very very unhappy man.
2007-12-22T08:06:19+00:00,179552809,179403632,1,Karmaisking,Talk:Credit crunch,/* Editor of the Year Award */
2007-12-21T14:03:57+00:00,179390107,179390041,1,Karmaisking,Talk:Credit crunch,/* Editor of the Year Award */
2007-12-21T14:03:21+00:00,179390041,179329670,1,Karmaisking,Talk:Credit crunch,
2007-12-21T04:45:34+00:00,179333993,179333874,1,Karmaisking,Credit crunch,
2007-12-21T04:44:32+00:00,179333874,179291358,1,Karmaisking,Credit crunch,I try to help Gregalton where I can...
2007-12-21T04:36:55+00:00,179332963,179329815,1,Karmaisking,User talk:Gregalton,/* Credit Crunch */
2007-12-21T04:11:04+00:00,179329338,177635691,1,Karmaisking,Talk:Credit crunch,
2007-12-21T03:50:45+00:00,179326732,179120534,1,Karmaisking,User talk:Gregalton,
2007-12-21T00:58:32+00:00,179300265,179300013,1,Karmaisking,Criticism of fractional-reserve banking,/* Pushing on a string */
2007-12-21T00:57:33+00:00,179300013,179176716,1,Karmaisking,Criticism of fractional-reserve banking,Citations do (now) reflect the sentence exactly.  Removed editorial by Gregalton.
2007-12-21T00:18:54+00:00,179291358,179263290,1,Karmaisking,Credit crunch,"It's the best I could find.  It's not really ""blog-like"".  It reads like a legit reference.  Please Gregalton leave it in - or find a better source."
2007-12-20T13:32:29+00:00,179176716,179168836,1,Karmaisking,Criticism of fractional-reserve banking,"banks can go bust if the issue is not liquidity but solvency, due to stupid mistake lending decisions over several years that are irrecoverable and therefore fatal.  For example, the purchase of CDOs."
2007-12-20T12:21:51+00:00,179168836,179135119,1,Karmaisking,Criticism of fractional-reserve banking,Added Rowbotham as cite.  Please read the book.
2007-12-20T06:26:10+00:00,179135119,179129414,1,Karmaisking,Criticism of fractional-reserve banking,/* Conclusion */
2007-12-20T05:39:14+00:00,179129414,179129245,1,Karmaisking,Criticism of fractional-reserve banking,
2007-12-20T05:37:51+00:00,179129245,179128872,1,Karmaisking,Criticism of fractional-reserve banking,
2007-12-20T05:35:11+00:00,179128872,179096548,1,Karmaisking,Criticism of fractional-reserve banking,"Added reference, showing a CLEAR example highlighted by a politician of the MSM minimizing the importance of the issue."
2007-12-20T02:46:17+00:00,179103448,179103301,1,Karmaisking,User talk:Gregalton,/* Debt-based money */
2007-12-20T02:45:21+00:00,179103301,178426663,1,Karmaisking,User talk:Gregalton,/* Debt-based money */
2007-12-20T02:02:12+00:00,179096548,179096390,1,Karmaisking,Criticism of fractional-reserve banking,Woops yet again
2007-12-20T02:01:09+00:00,179096390,179094048,1,Karmaisking,Criticism of fractional-reserve banking,Ref is Michael Rowbotham: greatest injection of debt money (and profits) come from residential development
2007-12-20T01:47:12+00:00,179094048,179093899,1,Karmaisking,Criticism of fractional-reserve banking,"Woops (I'm tired, somebody else start referencing!)"
2007-12-20T01:46:18+00:00,179093899,179092978,1,Karmaisking,Criticism of fractional-reserve banking,"Attached reputable newspaper article providing a CLEAR current example of a central bank purchasing ""failed debts"" in exchange for cash."
2007-12-20T01:41:23+00:00,179092978,179090114,1,Karmaisking,Criticism of fractional-reserve banking,"Minor clarification in Economic and Political Criticisms.  This is a key point from ""Mad"" Michael's book: we'll starve on our own stupid debt money.  I've toned it down in the article."
2007-12-20T01:26:06+00:00,179090114,178997515,1,Karmaisking,Criticism of fractional-reserve banking,
2007-12-19T12:43:44+00:00,178939500,178939373,1,Karmaisking,Criticism of fractional-reserve banking,/* Potential future impact */
2007-12-19T12:42:28+00:00,178939373,178937267,1,Karmaisking,Criticism of fractional-reserve banking,Catchy headline don't you think?
2007-12-19T12:20:57+00:00,178937267,178937138,1,Karmaisking,Criticism of fractional-reserve banking,Minor typo
2007-12-19T12:19:43+00:00,178937138,178925720,1,Karmaisking,Criticism of fractional-reserve banking,NY Times article on shrinking world food supply; refer to Michael Rowbotham for possible causes beyond those listed in the article
2007-12-19T10:13:06+00:00,178925720,178895840,1,Karmaisking,Criticism of fractional-reserve banking,The issue is not just price - food may simply become unavailable at any price if the monetary system broke down (food hoarding would occur where food is confiscated by national governments).
2007-12-19T06:04:45+00:00,178895840,178890769,1,Karmaisking,Criticism of fractional-reserve banking,"Try to keep the footnotes right next to the sentence (without a space).  Pedantic I know, but I like to keep things neat."
2007-12-19T05:34:20+00:00,178890769,178880611,1,Karmaisking,Criticism of fractional-reserve banking,
2007-12-19T04:27:00+00:00,178880611,178880467,1,Karmaisking,Criticism of fractional-reserve banking,/* Authors and analysts */
2007-12-19T04:26:01+00:00,178880467,178663403,1,Karmaisking,Criticism of fractional-reserve banking,I've thrown the left-wing alternatives back in (1) to show this is not just a libertarian rant and (2) in the hope that others can add references.  Please help out if you can.
2007-12-17T23:03:50+00:00,178598859,178518606,1,Karmaisking,Talk:Criticism of fractional-reserve banking,/* I'm sorry I've lost all respect */
2007-12-17T13:15:45+00:00,178496558,178495955,1,Karmaisking,Talk:Criticism of fractional-reserve banking,/* I'm sorry I've lost all respect */
2007-12-17T13:10:20+00:00,178495955,178495440,1,Karmaisking,Talk:Criticism of fractional-reserve banking,/* I'm sorry I've lost all respect */
2007-12-17T13:06:02+00:00,178495440,178490348,1,Karmaisking,Talk:Criticism of fractional-reserve banking,/* I'm sorry I've lost all respect */
2007-12-17T06:17:32+00:00,178457144,178450229,1,Karmaisking,Talk:Criticism of fractional-reserve banking,/* Sources used */
2007-12-17T05:54:35+00:00,178454671,178454591,1,Karmaisking,Criticism of fractional-reserve banking,
2007-12-17T05:53:52+00:00,178454591,178447723,1,Karmaisking,Criticism of fractional-reserve banking,/* Potential societal impact */
2007-12-17T05:17:13+00:00,178450229,178449885,1,Karmaisking,Talk:Criticism of fractional-reserve banking,/* I'm sorry I've lost all respect */
2007-12-17T05:14:20+00:00,178449885,178449837,1,Karmaisking,Talk:Criticism of fractional-reserve banking,/* I'm sorry I've lost all respect */
2007-12-17T05:14:00+00:00,178449837,178449700,1,Karmaisking,Talk:Criticism of fractional-reserve banking,/* I'm sorry I've lost all respect */
2007-12-17T05:13:00+00:00,178449700,178449617,1,Karmaisking,Talk:Criticism of fractional-reserve banking,/* I'm sorry I've lost all respect */
2007-12-17T05:12:19+00:00,178449617,178436078,1,Karmaisking,Talk:Criticism of fractional-reserve banking,
2007-12-17T04:57:25+00:00,178447723,178447682,1,Karmaisking,Criticism of fractional-reserve banking,/* Types of downturns */
2007-12-17T04:57:03+00:00,178447682,178446842,1,Karmaisking,Criticism of fractional-reserve banking,/* Types of downturns */
2007-12-17T04:50:33+00:00,178446842,178445731,1,Karmaisking,Criticism of fractional-reserve banking,Remove Regulatory Debauchery and it will PROVE you have no idea.  Do you know who Satyajit Das is Gregalton? Have you read his reference book on derivatives?  This guy is embarrassing.
2007-12-17T04:41:39+00:00,178445731,178432476,1,Karmaisking,Criticism of fractional-reserve banking,Oh my God I can't believe Gregalton deleted world-renowned derivatives expert Satyajit Das on the grounds of questionable notability or reliability.  The guy has NO IDEA.
2007-12-17T03:36:59+00:00,178436078,178435863,1,Karmaisking,Talk:Criticism of fractional-reserve banking,/* Use of sources: economic and political criticisms */
2007-12-17T03:35:39+00:00,178435863,178431821,1,Karmaisking,Talk:Criticism of fractional-reserve banking,
2007-12-17T03:13:21+00:00,178432476,178432252,1,Karmaisking,Criticism of fractional-reserve banking,This time...
2007-12-17T03:12:03+00:00,178432252,178431454,1,Karmaisking,Criticism of fractional-reserve banking,One more try....
2007-12-17T03:09:30+00:00,178431821,178429974,1,Karmaisking,Talk:Criticism of fractional-reserve banking,/* Use of sources: economic and political criticisms */
2007-12-17T03:07:34+00:00,178431454,178421124,1,Karmaisking,Criticism of fractional-reserve banking,This very cute PowerPoint connects up an increase in the money supply through central bank intervention with a currency depreciation.  Neat.  The other refs talk about the intervention itself.
2007-12-17T02:58:57+00:00,178429974,178429239,1,Karmaisking,Talk:Criticism of fractional-reserve banking,/* Misuse of sources is getting outrageous */
2007-12-17T02:55:10+00:00,178429239,178429035,1,Karmaisking,Talk:Criticism of fractional-reserve banking,/* Use of sources: economic and political criticisms */
2007-12-17T02:54:11+00:00,178429035,178428297,1,Karmaisking,Talk:Criticism of fractional-reserve banking,/* Use of sources: economic and political criticisms */
2007-12-17T02:43:27+00:00,178426977,178426340,1,Karmaisking,Fractional-reserve banking,
2007-12-17T02:41:50+00:00,178426663,178425305,1,Karmaisking,User talk:Gregalton,/* Debt-based money */
2007-12-17T02:40:06+00:00,178426340,178414896,1,Karmaisking,Fractional-reserve banking,Thrown the image back in which keeps being deleted by unknown Vandals?
2007-12-17T02:16:15+00:00,178422315,178411610,1,Karmaisking,User talk:Gregalton,
2007-12-17T02:08:33+00:00,178421124,178420210,1,Karmaisking,Criticism of fractional-reserve banking,"OK, I openly admit this is being used as a source but it's the best I can find.  It's a terrific summary of the history that can be verified by anyone.  Can anyone do better than this???"
2007-12-17T02:02:17+00:00,178420210,178419649,1,Karmaisking,Criticism of fractional-reserve banking,Reference added.
2007-12-17T01:59:02+00:00,178419649,178413157,1,Karmaisking,Criticism of fractional-reserve banking,
2007-12-17T01:21:55+00:00,178413157,178397142,1,Karmaisking,Criticism of fractional-reserve banking,"I cannot believe these were deleted.  These ""blogs"" confirm the existence of the BELIEF.  How could they possibly be deleted? Please see talk page.  This is THE prime example of the problem."
2007-12-17T01:08:54+00:00,178410994,178407792,1,Karmaisking,User talk:Gregalton,
2007-12-17T01:03:16+00:00,178409971,178408894,1,Karmaisking,Talk:Criticism of fractional-reserve banking,/* RFC: Sources and use of sources */
2007-12-17T00:51:06+00:00,178407792,178018221,1,Karmaisking,User talk:Gregalton,/* Debt-based money */
2007-12-16T23:13:03+00:00,178389318,178388925,1,Karmaisking,Criticism of fractional-reserve banking,"""Global Money Supply Ratios"" re-inserted.  I beg, plead with Gregalton (and politely ask him to provide a better reference if he wants to delete).  He deletes.  I get angry...you know the story now..."
2007-12-16T23:10:48+00:00,178388925,178388621,1,Karmaisking,Criticism of fractional-reserve banking,"""Forgotten War"" re-inserted.  I beg, plead with Gregalton.  He deletes.  I get angry...you get the picture"
2007-12-16T23:09:11+00:00,178388621,178388228,1,Karmaisking,Criticism of fractional-reserve banking,"Removed "")"".  Gregalton so eager to delete he forgot to delete the bracket..."
2007-12-16T23:07:17+00:00,178388228,178385786,1,Karmaisking,Criticism of fractional-reserve banking,"Woops, looks like I may have edited an old version.  I will clean up now.  (Sorry Gregalton got me angry a little while ago...)"
2007-12-16T22:55:36+00:00,178385786,178379299,1,Karmaisking,Criticism of fractional-reserve banking,"After literally 5 hours of research on-line I cannot find a clearer, better reference on M1/M2/M3 numbers.  Gregalton I beg you to leave it in OR FIND A BETTER REFERENCE."
2007-12-16T22:27:02+00:00,178379978,178371108,1,Karmaisking,Talk:Criticism of fractional-reserve banking,/* RFC: Sources and use of sources */
2007-12-16T22:23:59+00:00,178379299,178368758,1,Karmaisking,Criticism of fractional-reserve banking,I cannot believe this reference has been deleted.  It simply establishes the existence of the ONGOING debate.  Please see talk page.  I beg you Gregalton to leave it in
2007-12-16T21:35:10+00:00,178369453,178369335,1,Karmaisking,Talk:Criticism of fractional-reserve banking,/* RFC: Sources and use of sources */
2007-12-16T21:34:38+00:00,178369335,178364024,1,Karmaisking,Talk:Criticism of fractional-reserve banking,/* RFC: Sources and use of sources */
2007-12-16T21:31:53+00:00,178368758,178332393,1,Karmaisking,Criticism of fractional-reserve banking,/* Policy Implications */
2007-12-16T21:08:40+00:00,178364024,178363851,1,Karmaisking,Talk:Criticism of fractional-reserve banking,/* RFC: Sources and use of sources */
2007-12-16T21:07:52+00:00,178363851,178363523,1,Karmaisking,Talk:Criticism of fractional-reserve banking,/* RFC: Sources and use of sources */
2007-12-16T21:06:28+00:00,178363523,178358019,1,Karmaisking,Talk:Criticism of fractional-reserve banking,/* RFC: Sources and use of sources */
2007-12-16T20:37:57+00:00,178357780,178357576,1,Karmaisking,Talk:Criticism of fractional-reserve banking,/* Use of sources: economic and political criticisms */
2007-12-16T20:36:53+00:00,178357576,178355420,1,Karmaisking,Talk:Criticism of fractional-reserve banking,/* Use of sources: economic and political criticisms */
2007-12-16T20:25:52+00:00,178355420,178353258,1,Karmaisking,Talk:Criticism of fractional-reserve banking,/* RFC: Sources and use of sources */
2007-12-16T20:14:13+00:00,178353258,178290309,1,Karmaisking,Talk:Criticism of fractional-reserve banking,/* RFC: Sources and use of sources */
2007-12-16T13:39:13+00:00,178285166,178284653,1,Karmaisking,Talk:Criticism of fractional-reserve banking,/* Use of sources: economic and political criticisms */
2007-12-16T13:34:00+00:00,178284653,178282545,1,Karmaisking,Talk:Criticism of fractional-reserve banking,/* RFC: Sources and use of sources */
2007-12-16T13:15:45+00:00,178282545,178281782,1,Karmaisking,Talk:Criticism of fractional-reserve banking,/* RFC: Sources and use of sources */
2007-12-16T13:09:48+00:00,178281782,178279811,1,Karmaisking,Talk:Criticism of fractional-reserve banking,/* Use of sources: economic and political criticisms */
2007-12-16T12:43:42+00:00,178278514,178278412,1,Karmaisking,Talk:Criticism of fractional-reserve banking,/* RFC: Sources and use of sources */
2007-12-16T12:42:44+00:00,178278412,178278161,1,Karmaisking,Talk:Criticism of fractional-reserve banking,/* RFC: Sources and use of sources */
2007-12-16T12:40:23+00:00,178278161,178277993,1,Karmaisking,Talk:Criticism of fractional-reserve banking,/* RFC: Sources and use of sources */
2007-12-16T12:38:20+00:00,178277993,178277904,1,Karmaisking,Talk:Criticism of fractional-reserve banking,/* RFC: Sources and use of sources */
2007-12-16T12:37:36+00:00,178277904,178277704,1,Karmaisking,Talk:Criticism of fractional-reserve banking,/* RFC: Sources and use of sources */
2007-12-16T12:35:57+00:00,178277704,178274036,1,Karmaisking,Talk:Criticism of fractional-reserve banking,/* RFC: Sources and use of sources */
2007-12-16T11:48:44+00:00,178272083,178261101,1,Karmaisking,Criticism of fractional-reserve banking,
2007-12-16T10:13:29+00:00,178261101,178254471,1,Karmaisking,Criticism of fractional-reserve banking,Minor formatting correction
2007-12-16T10:01:19+00:00,178260260,178252925,1,Karmaisking,Talk:Criticism of fractional-reserve banking,
2007-12-14T04:13:58+00:00,177818013,177817101,1,Karmaisking,Talk:Criticism of fractional-reserve banking,/* Sources used */
2007-12-14T04:08:12+00:00,177817101,177816715,1,Karmaisking,Talk:Criticism of fractional-reserve banking,/* Sources used */
2007-12-14T04:05:47+00:00,177816715,177816068,1,Karmaisking,Talk:Criticism of fractional-reserve banking,/* Sources used */
2007-12-14T04:01:45+00:00,177816068,177815941,1,Karmaisking,Talk:Criticism of fractional-reserve banking,/* Sources used */
2007-12-14T04:00:54+00:00,177815941,177814747,1,Karmaisking,Talk:Criticism of fractional-reserve banking,/* Sources used */
2007-12-14T03:42:11+00:00,177813049,177810905,1,Karmaisking,Criticism of fractional-reserve banking,
2007-12-14T03:27:35+00:00,177810905,177810683,1,Karmaisking,Criticism of fractional-reserve banking,
2007-12-14T03:26:10+00:00,177810683,177804418,1,Karmaisking,Criticism of fractional-reserve banking,
2007-12-14T02:47:24+00:00,177804418,177786207,1,Karmaisking,Criticism of fractional-reserve banking,
2007-12-14T02:40:51+00:00,177803365,177791196,1,Karmaisking,Talk:Criticism of fractional-reserve banking,/* Sources used */
2007-12-14T01:30:16+00:00,177791196,177790741,1,Karmaisking,Talk:Criticism of fractional-reserve banking,/* Sources used */
2007-12-14T01:28:02+00:00,177790741,177790492,1,Karmaisking,Talk:Criticism of fractional-reserve banking,/* Sources used */
2007-12-14T01:26:45+00:00,177790492,177770449,1,Karmaisking,Talk:Criticism of fractional-reserve banking,/* Sources used */
2007-12-14T01:02:16+00:00,177786207,177756345,1,Karmaisking,Criticism of fractional-reserve banking,
2007-12-13T22:29:59+00:00,177756512,177755891,1,Karmaisking,Talk:Criticism of fractional-reserve banking,
2007-12-13T22:26:51+00:00,177755891,177755507,1,Karmaisking,Talk:Criticism of fractional-reserve banking,/* Article scope and approach */
2007-12-13T21:36:01+00:00,177745332,177745169,1,Karmaisking,Talk:Criticism of fractional-reserve banking,/* Article scope and approach */
2007-12-13T21:35:19+00:00,177745169,177692416,1,Karmaisking,Talk:Criticism of fractional-reserve banking,/* Article scope and approach */
2007-12-13T11:43:23+00:00,177637316,177619198,1,Karmaisking,User talk:TastyPoutine,/* Credit crunch */
2007-12-13T11:28:39+00:00,177635900,177619203,1,Karmaisking,User talk:Karmaisking,
2007-12-13T11:26:41+00:00,177635691,177485213,1,Karmaisking,Talk:Credit crunch,/* External links */
2007-12-13T06:09:42+00:00,177604294,177564619,1,Karmaisking,Criticism of fractional-reserve banking,"Let's try to work around the graffiti for now, until it gets completely wiped by the Brits"
2007-12-13T05:15:43+00:00,177597771,177348329,1,Karmaisking,Credit crunch,Added absolute minimum number of essential External Links to assist students understand the credit crunch.
2007-12-13T04:24:18+00:00,177591122,177496692,1,Karmaisking,Talk:Criticism of fractional-reserve banking,
2007-12-13T02:36:08+00:00,177574775,177565156,1,Karmaisking,User talk:TastyPoutine,[[WP:UNDO|Undid]] revision 177565156 by [[Special:Contributions/Montco|Montco]] ([[User talk:Montco|talk]])
2007-12-13T01:22:31+00:00,177561261,177558697,1,Karmaisking,User talk:TastyPoutine,Please don't delete until the matter is resolved.
2007-12-13T01:20:06+00:00,177560823,177560490,1,Karmaisking,User talk:Luna Santin,/* credit crunch and debt money */
2007-12-13T01:18:30+00:00,177560490,177560308,1,Karmaisking,User talk:Luna Santin,/* credit crunch and debt money */
2007-12-13T01:17:26+00:00,177560308,177558626,1,Karmaisking,User talk:Luna Santin,/* credit crunch and debt money */
2007-12-13T01:03:51+00:00,177557760,177541041,1,Karmaisking,User talk:TastyPoutine,/* Karmaisking */
2007-12-13T00:37:44+00:00,177552855,177516281,1,Karmaisking,Criticism of fractional-reserve banking,
2007-12-12T21:37:03+00:00,177516281,177511317,1,Karmaisking,Criticism of fractional-reserve banking,/* Inherent problems with system */
2007-12-12T21:13:13+00:00,177511317,177510383,1,Karmaisking,Criticism of fractional-reserve banking,
2007-12-12T21:08:20+00:00,177510383,177509613,1,Karmaisking,Criticism of fractional-reserve banking,
2007-12-12T21:04:24+00:00,177509613,177507156,1,Karmaisking,Criticism of fractional-reserve banking,/* Basic debate */
2007-12-12T20:51:33+00:00,177507156,177502097,1,Karmaisking,Criticism of fractional-reserve banking,/* Potential societal impact */
2007-12-12T20:12:44+00:00,177499090,177476767,1,Karmaisking,User talk:TastyPoutine,
2007-12-12T11:39:03+00:00,177413156,177413122,1,Karmaisking,User talk:TastyPoutine,
2007-12-12T11:38:41+00:00,177413122,177412836,1,Karmaisking,User talk:TastyPoutine,
2007-12-12T11:35:37+00:00,177412836,177350860,1,Karmaisking,User talk:TastyPoutine,
2007-12-12T11:25:14+00:00,177411803,177411740,1,Karmaisking,Talk:Credit crunch,/* External links */
2007-12-12T11:24:33+00:00,177411740,177394867,1,Karmaisking,Talk:Credit crunch,/* External links */
2007-12-12T11:16:50+00:00,177411079,177410980,1,Karmaisking,User talk:Karmaisking,/* Personal attacks? */
2007-12-12T11:15:50+00:00,177410980,177395935,1,Karmaisking,User talk:Karmaisking,/* Personal attacks? */
2007-12-12T05:35:43+00:00,177378047,177376780,1,Karmaisking,Criticism of fractional-reserve banking,/* Policy Implications */
2007-12-12T05:24:00+00:00,177376780,177376689,1,Karmaisking,Criticism of fractional-reserve banking,/* Policy Implications */
2007-12-12T05:23:06+00:00,177376689,177376101,1,Karmaisking,Criticism of fractional-reserve banking,/* Policy Implications */
2007-12-12T05:17:57+00:00,177376101,177349542,1,Karmaisking,Criticism of fractional-reserve banking,/* Policy Implications */
2007-12-12T03:18:01+00:00,177359239,177357468,1,Karmaisking,User talk:Karmaisking,/* Personal attacks? */
2007-12-12T02:40:48+00:00,177352845,177352079,1,Karmaisking,Talk:Credit crunch,/* External links */
2007-12-12T02:36:37+00:00,177352079,177351604,1,Karmaisking,Talk:Credit crunch,/* External links */
2007-12-12T02:33:53+00:00,177351604,177341303,1,Karmaisking,Talk:Credit crunch,/* External links */
2007-12-12T02:29:21+00:00,177350860,177350768,1,Karmaisking,User talk:TastyPoutine,
2007-12-12T02:28:47+00:00,177350768,177349855,1,Karmaisking,User talk:TastyPoutine,
2007-12-12T02:23:15+00:00,177349855,177135993,1,Karmaisking,User talk:TastyPoutine,
2007-12-12T02:21:05+00:00,177349542,177349340,1,Karmaisking,Criticism of fractional-reserve banking,/* Policy Implications */
2007-12-12T02:19:56+00:00,177349340,177347582,1,Karmaisking,Criticism of fractional-reserve banking,/* Economic and political opposition */
2007-12-12T02:08:43+00:00,177347582,177346726,1,Karmaisking,Criticism of fractional-reserve banking,
2007-12-12T02:03:39+00:00,177346726,177346602,1,Karmaisking,Criticism of fractional-reserve banking,
2007-12-12T02:02:59+00:00,177346602,177346071,1,Karmaisking,Criticism of fractional-reserve banking,
2007-12-12T02:00:07+00:00,177346071,177344839,1,Karmaisking,Criticism of fractional-reserve banking,
2007-12-12T01:52:50+00:00,177344839,177344483,1,Karmaisking,Criticism of fractional-reserve banking,/* External links */
2007-12-12T01:50:48+00:00,177344483,177343950,1,Karmaisking,Criticism of fractional-reserve banking,/* External links */
2007-12-12T01:47:55+00:00,177343950,177343468,1,Karmaisking,Criticism of fractional-reserve banking,
2007-12-12T01:45:21+00:00,177343468,177343248,1,Karmaisking,Criticism of fractional-reserve banking,
2007-12-12T01:44:07+00:00,177343248,177343103,1,Karmaisking,Criticism of fractional-reserve banking,
2007-12-12T01:43:19+00:00,177343103,177337487,1,Karmaisking,Criticism of fractional-reserve banking,
2007-12-11T23:38:05+00:00,177319303,177318951,1,Karmaisking,Talk:Criticism of fractional-reserve banking,/* Delete this article */
2007-12-11T23:36:07+00:00,177318951,177313616,1,Karmaisking,Talk:Criticism of fractional-reserve banking,/* Delete this article */
2007-12-11T22:58:18+00:00,177311826,177311622,1,Karmaisking,Talk:Criticism of fractional-reserve banking,/* Delete this article */
2007-12-11T22:57:26+00:00,177311622,177310790,1,Karmaisking,Talk:Criticism of fractional-reserve banking,/* Delete this article */
2007-12-11T22:52:59+00:00,177310790,177198591,1,Karmaisking,Talk:Criticism of fractional-reserve banking,/* Delete this article */
2007-12-11T12:17:28+00:00,177194223,177193469,1,Karmaisking,Talk:Criticism of fractional-reserve banking,/* Delete this article */
2007-12-11T12:11:54+00:00,177193469,177193291,1,Karmaisking,Talk:Criticism of fractional-reserve banking,/* Delete this article */
2007-12-11T12:10:23+00:00,177193291,177193209,1,Karmaisking,Talk:Criticism of fractional-reserve banking,/* Delete this article */
2007-12-11T12:09:44+00:00,177193209,177192817,1,Karmaisking,Talk:Criticism of fractional-reserve banking,/* Delete this article */
2007-12-11T12:06:52+00:00,177192817,177192631,1,Karmaisking,Talk:Criticism of fractional-reserve banking,/* Delete this article */
2007-12-11T12:05:21+00:00,177192631,177192498,1,Karmaisking,Talk:Criticism of fractional-reserve banking,/* Delete this article */
2007-12-11T12:04:08+00:00,177192498,177192260,1,Karmaisking,Talk:Criticism of fractional-reserve banking,/* Delete this article */
2007-12-11T12:02:09+00:00,177192260,177158138,1,Karmaisking,Talk:Criticism of fractional-reserve banking,/* Delete this article */
2007-12-11T05:19:34+00:00,177153257,177153103,1,Karmaisking,User talk:Karmaisking,/* External links */
2007-12-11T05:18:22+00:00,177153103,177153016,1,Karmaisking,User talk:Karmaisking,/* External links */
2007-12-11T05:17:40+00:00,177153016,177131375,1,Karmaisking,User talk:Karmaisking,
2007-12-11T04:32:50+00:00,177146877,157463730,1,Karmaisking,User talk:Gantlord,
2007-12-11T04:29:39+00:00,177146396,176743247,1,Karmaisking,Talk:Criticism of fractional-reserve banking,/* Delete this article */
2007-12-11T03:40:56+00:00,177139171,155863782,1,Karmaisking,User:TastyPoutine,
2007-12-11T03:25:32+00:00,177136821,177136230,1,Karmaisking,Credit crunch,"Cannibal Montco strikes again!  Spamming...what precisely?  Truth?  Knowledge?  Be gone ""common spammers"" of the world."
2007-12-11T03:18:17+00:00,177135630,177103963,1,Karmaisking,Talk:Credit crunch,/* External links */
2007-12-11T03:07:32+00:00,177133449,177129361,1,Karmaisking,User talk:TastyPoutine,
2007-12-11T03:05:44+00:00,177133126,177131713,1,Karmaisking,Credit crunch,Let's see if Cannibal Montco tries to eat us again...This is so much fun!
2007-12-11T02:59:30+00:00,177131713,177112955,1,Karmaisking,Credit crunch,"I understand and will comply with your request...for 5 minutes.  Cannibal Montco, for the last time put down that knife and fork and stop eating yourself and others."
2007-12-11T02:57:45+00:00,177131375,177128370,1,Karmaisking,User talk:Karmaisking,/* External links */
2007-12-11T02:42:39+00:00,177128640,177125763,1,Karmaisking,User talk:TastyPoutine,
2007-12-11T02:41:09+00:00,177128370,177128063,1,Karmaisking,User talk:Karmaisking,/* External links */
2007-12-11T02:39:14+00:00,177128063,177127981,1,Karmaisking,User talk:Karmaisking,/* External links */
2007-12-11T02:38:50+00:00,177127981,177127221,1,Karmaisking,User talk:Karmaisking,/* External links */
2007-12-11T02:34:23+00:00,177127221,177125678,1,Karmaisking,User talk:Karmaisking,/* External links */
2007-12-11T02:23:11+00:00,177125268,175223313,1,Karmaisking,User talk:TastyPoutine,
2007-12-11T02:10:48+00:00,177123066,177122771,1,Karmaisking,User talk:Karmaisking,/* External links */
2007-12-11T02:09:12+00:00,177122771,177122615,1,Karmaisking,User talk:Karmaisking,/* External links */
2007-12-11T02:08:20+00:00,177122615,177117195,1,Karmaisking,User talk:Karmaisking,/* External links */
2007-12-11T01:37:33+00:00,177117195,177117118,1,Karmaisking,User talk:Karmaisking,/* External links */
2007-12-11T01:37:09+00:00,177117118,177117019,1,Karmaisking,User talk:Karmaisking,/* External links */
2007-12-11T01:36:37+00:00,177117019,177116346,1,Karmaisking,User talk:Karmaisking,/* External links */
2007-12-11T01:32:42+00:00,177116346,177115886,1,Karmaisking,User talk:Karmaisking,/* External links */
2007-12-11T01:30:11+00:00,177115886,177115567,1,Karmaisking,User talk:Karmaisking,
2007-12-11T01:28:24+00:00,177115567,177114794,1,Karmaisking,User talk:Karmaisking,/* External links */
2007-12-11T01:24:12+00:00,177114794,177113768,1,Karmaisking,User talk:Karmaisking,/* External links */
2010-08-16T10:21:18+00:00,379194003,379060389,1,_V_forVolatility,Murray Rothbard,correct quote - from Ethics of Liberty. bandits not thieves
2010-08-15T12:08:36+00:00,379034488,379034366,1,_V_forVolatility,"User:""V""forVolatility",[[WP:AES|←]]Blanked the page
2010-08-15T12:07:24+00:00,379034366,0,1,_V_forVolatility,"User:""V""forVolatility",[[WP:AES|←]]Created page with 'God's Revenge will be Volatility.  The Vendetta will kill Ponzi finance and usher in gold and silver and limited government.  It will jail Shylock and free Antonio....'
2008-12-31T01:16:50+00:00,260998016,0,1,$atan$ellsCheapCredit,User talk:$atan$ellsCheapCredit,[[WP:AES|←]]Created page with 'Why was this ''particular'' sockppt removed from Karmaisking's suspected sockppt list?'
2008-12-16T09:44:38+00:00,258328213,257480081,1,$atan$ellsCheapCredit,Talk:Credit crunch,Recent mindless vandalism.  Revert to last edit by JQ.
2008-12-06T23:33:37+00:00,256317085,251640807,1,$atan$ellsCheapCredit,Michael Rowbotham,Not NPOV comments.  Needed to be removed.
2008-09-07T05:03:12+00:00,236799431,236457879,1,$laveryWorldwideInc,Talk:Full-reserve banking,/* Hypothetical?! */
2008-09-07T05:00:17+00:00,236799043,236744589,1,$laveryWorldwideInc,Full-reserve banking,No reason given.  What specific edits should be deleted???
2008-09-07T04:48:25+00:00,236797532,236797347,1,$laveryWorldwideInc,User talk:Gregalton,"Is it ""tine"" or ""tian""?  I'm positive you would know...."
2008-09-07T04:46:51+00:00,236797347,236796947,1,$laveryWorldwideInc,User talk:Gregalton,/* Revised Moniker */
2008-09-07T04:44:17+00:00,236797029,236743658,1,$laveryWorldwideInc,User talk:Misessus,/* 3 revert rule */
2008-09-07T04:43:35+00:00,236796947,236796842,1,$laveryWorldwideInc,User talk:Gregalton,/* It's Starting Again */  Sorry wrong page
2008-09-07T04:42:42+00:00,236796842,236796739,1,$laveryWorldwideInc,User talk:Gregalton,/* Revised Moniker */
2008-09-07T04:41:52+00:00,236796739,236796119,1,$laveryWorldwideInc,User talk:Gregalton,/* Revised Moniker */
2008-09-07T04:36:53+00:00,236796119,236735147,1,$laveryWorldwideInc,User talk:Gregalton,/* Revert rule */
2009-01-13T08:23:22+00:00,263768543,263754178,1,$oul$old,Libertarianism,
2009-01-13T08:13:29+00:00,263767581,0,1,$oul$old,User:$oul$old,"[[WP:AES|←]]Created page with 'This quality $oul will be $old to the highest bidder.  Who will $tart me off?  Anyone?  Come on, let's get this auction off and running...'"
2009-01-13T08:11:25+00:00,263767367,263593709,1,$oul$old,Austrian school of economics,Typos
2010-08-01T11:56:07+00:00,376579198,376425075,1,AffirmativeInaction,Systemic risk,Remove POV pushing and unencyclopedic expression.  Cheap swipes at Treasury officials over AIG do not belong on this page.
2010-08-01T11:17:18+00:00,376575936,376556356,1,AffirmativeInaction,Talk:Libertarianism,Against WP policy and Hex's own rules to censor entry that has sparked discussion.  Inappropriate to change heading.  Someone other than Hex or Carol pls rule per [[WP:COI]]
2010-08-01T02:39:45+00:00,376528804,376457223,1,AffirmativeInaction,Affirmative action in the United States,/* Legal history */ links should be added here
2008-07-24T07:49:52+00:00,227582807,227414909,1,AlexanderHamiltonWasaJerk,Credit crunch,
2008-07-24T07:44:31+00:00,227582239,227405074,1,AlexanderHamiltonWasaJerk,User talk:Satori Son,
2008-11-20T04:48:47+00:00,252930617,252930490,1,AntonioMustDie,Libertarianism,
2008-11-20T04:47:45+00:00,252930490,252930378,1,AntonioMustDie,Libertarianism,Tweak.  Hopefully everyone can live with these minor changes.
2008-11-20T04:46:40+00:00,252930378,252913867,1,AntonioMustDie,Libertarianism,"Can we at least live with this?  Spectrum is still wrong, as it described inter-faith not intra-faith.  Nevertheless this is slightly better than the drab ugly lede."
2008-11-20T03:52:57+00:00,252923685,252782879,1,AntonioMustDie,Talk:Libertarianism,"I respectfully disagree.  Please read RPRP's talk page, where it was SPECIFICALLY mentioned that provocative or controversial comments should remain on talk pages.  Why change the rule here?"
2008-11-20T03:11:22+00:00,252917706,252658965,1,AntonioMustDie,Systemic risk,
2008-11-20T00:23:33+00:00,252891171,252891082,1,AntonioMustDie,Talk:Criticism of fractional-reserve banking,/* Proposed claim addition */
2008-11-20T00:23:02+00:00,252891082,252890261,1,AntonioMustDie,Talk:Criticism of fractional-reserve banking,/* Proposed claim addition */
2008-11-20T00:18:25+00:00,252890261,252889590,1,AntonioMustDie,Talk:Criticism of fractional-reserve banking,/* Proposed claim addition */
2008-11-20T00:15:02+00:00,252889590,252888065,1,AntonioMustDie,Talk:Criticism of fractional-reserve banking,/* Proposed claim addition */
2008-11-20T00:06:27+00:00,252888065,252871138,1,AntonioMustDie,Talk:Criticism of fractional-reserve banking,
2008-11-19T22:30:12+00:00,252871138,252870376,1,AntonioMustDie,Talk:Criticism of fractional-reserve banking,/* Proposed claim addition */
2008-11-19T22:26:29+00:00,252870376,252762420,1,AntonioMustDie,Talk:Criticism of fractional-reserve banking,/* Proposed claim addition */
2008-11-19T11:43:22+00:00,252762420,252759122,1,AntonioMustDie,Talk:Criticism of fractional-reserve banking,/* Proposed claim addition */
2008-11-19T11:37:30+00:00,252761889,251843429,1,AntonioMustDie,Central bank,Realignment did NOT work.  Please check edits on preview page before accepting...
2008-11-19T11:23:45+00:00,252760666,252697104,1,AntonioMustDie,Talk:Libertarianism,Talk page discussions should not be deleted in such circumstances.  See Satori Son's talk page for details regarding this issue.  Especially if they have involved third party discussions.
2008-11-19T11:07:36+00:00,252759122,251404455,1,AntonioMustDie,Talk:Criticism of fractional-reserve banking,/* Proposed claim addition */
2008-11-19T10:51:38+00:00,252757620,252757518,1,AntonioMustDie,Criticism of fractional-reserve banking,/* Other non-mainstream views */
2008-11-19T10:50:39+00:00,252757518,252757079,1,AntonioMustDie,Criticism of fractional-reserve banking,Minor tidy ups of refs which were incorrectly written...
2008-11-19T10:45:48+00:00,252757079,252590802,1,AntonioMustDie,Criticism of fractional-reserve banking,
2008-11-19T02:56:32+00:00,252709197,248971700,1,AntonioMustDie,User:AntonioMustDie,[[WP:AES|←]]Blanked the page
2008-11-18T23:07:21+00:00,252666939,252666561,1,AntonioMustDie,Credit tightening,
2008-11-18T23:05:23+00:00,252666561,252666295,1,AntonioMustDie,Credit tightening,added ref.
2008-11-18T23:03:50+00:00,252666295,252666245,1,AntonioMustDie,Credit tightening,
2008-11-18T23:03:33+00:00,252666245,252666198,1,AntonioMustDie,Credit tightening,
2008-11-18T23:03:19+00:00,252666198,252592817,1,AntonioMustDie,Credit tightening,
2008-11-18T22:28:51+00:00,252658965,252592900,1,AntonioMustDie,Systemic risk,Most edits made sense....please check the substance of the edits made and selectively delete those considered unacceptable...
2008-11-01T10:05:57+00:00,248971700,0,1,AntonioMustDie,User:AntonioMustDie,"[[WP:AES|←]]Created page with 'It's in reserve.  Just in case.  Yes, it pays to think ahead...'"
2010-12-13T12:57:29+00:00,402136837,0,1,AssangeWinsPeople'sNobel,User:AssangeWinsPeople'sNobel,[[WP:AES|←]]Created page with '[http://wikileaks.lewrockwell.com/ Dinosaurs]'
2010-12-13T12:53:27+00:00,402136404,401073632,1,AssangeWinsPeople'sNobel,User talk:Darkstar1st,/* BRD */
2009-07-24T23:30:11+00:00,304030478,303910053,1,AustrianButOpen-Minded,Austrian school of economics,These minor edits seem fine and added clarity.  Note: ABOM is not KiK - please check the ip address.
2008-09-29T23:08:52+00:00,241884817,241767489,1,BanksAreGods,Talk:Fractional-reserve banking,/* What if government was stricter about reserve-lending ratios? */
2008-09-29T07:25:25+00:00,241720429,241689937,1,BanksAreGods,Talk:Fractional-reserve banking,/* What if government was stricter about reserve-lending ratios? */
2008-09-29T06:26:34+00:00,241713934,240400215,1,BanksAreGods,Criticism of fractional-reserve banking,
2008-09-29T03:00:15+00:00,241686429,241034262,1,BanksAreGods,Austrian school of economics,"/* The Austrian View of business cycles */ Lower case ""view"" to keep it consistent."
2008-09-29T02:36:19+00:00,241682945,241680113,1,BanksAreGods,Talk:Fractional-reserve banking,/* What if government was stricter about reserve-lending ratios? */
2008-09-29T02:18:59+00:00,241680113,241668505,1,BanksAreGods,Talk:Fractional-reserve banking,/* What if government was stricter about reserve-lending ratios? */
2008-09-29T01:06:04+00:00,241668505,241667726,1,BanksAreGods,Talk:Fractional-reserve banking,/* What if government was stricter about reserve-lending ratios? */
2008-09-29T01:01:37+00:00,241667726,241665806,1,BanksAreGods,Talk:Fractional-reserve banking,/* What if government was stricter about reserve-lending ratios? */
2008-09-29T00:50:51+00:00,241665806,241665349,1,BanksAreGods,Talk:Fractional-reserve banking,/* What if government was stricter about reserve-lending ratios? */
2008-09-29T00:48:35+00:00,241665349,241664989,1,BanksAreGods,Talk:Fractional-reserve banking,/* What if government was stricter about reserve-lending ratios? */
2008-09-29T00:46:36+00:00,241664989,241664820,1,BanksAreGods,Talk:Fractional-reserve banking,/* What if government was stricter about reserve-lending ratios? */
2008-09-29T00:45:31+00:00,241664820,241664673,1,BanksAreGods,Talk:Fractional-reserve banking,/* What if government was stricter about reserve-lending ratios? */
2008-09-29T00:44:38+00:00,241664673,241664480,1,BanksAreGods,Talk:Fractional-reserve banking,/* What if government was stricter about reserve-lending ratios? */
2008-09-29T00:43:27+00:00,241664480,241663847,1,BanksAreGods,Talk:Fractional-reserve banking,/* What if government was stricter about reserve-lending ratios? */
2008-09-29T00:39:32+00:00,241663847,241663591,1,BanksAreGods,Talk:Fractional-reserve banking,/* What if government was stricter about reserve-lending ratios? */
2008-09-29T00:37:56+00:00,241663591,241663226,1,BanksAreGods,Talk:Fractional-reserve banking,/* What if government was stricter about reserve-lending ratios? */
2008-09-29T00:35:37+00:00,241663226,241663065,1,BanksAreGods,Talk:Fractional-reserve banking,/* What if government was stricter about reserve-lending ratios? */
2008-09-29T00:34:44+00:00,241663065,241662571,1,BanksAreGods,Talk:Fractional-reserve banking,/* What if government was stricter about reserve-lending ratios? */
2008-09-29T00:31:55+00:00,241662571,241578224,1,BanksAreGods,Talk:Fractional-reserve banking,/* What if government was stricter about reserve-lending ratios? */
2008-11-07T05:19:13+00:00,250179975,250179510,1,BellCurveBlues,Austrian school of economics,/* Inflation */ typo
2008-11-07T05:14:46+00:00,250179510,250118091,1,BellCurveBlues,Austrian school of economics,
2010-05-09T05:31:48+00:00,361034814,0,1,BeVeryAfraid,User:BeVeryAfraid,[[WP:AES|←]]Created page with 'It's coming.  [http://www.financialarmageddon.com/ I can feel it.]    And you heard it [http://en.wikipedia.org/w/index.php?title=Criticism_of_fractional-reserve_ba...'
2009-04-22T12:49:56+00:00,285436310,285436084,1,BeVeryAfraid,Talk:Austrian school of economics,"/* Criticism */  Perhaps you'd be more afraid if I could actually spell? Then again, given you can't either...."
2009-04-22T12:48:18+00:00,285436084,285434672,1,BeVeryAfraid,Talk:Austrian school of economics,/* Criticism */  I'm waiting until the Maoist book burning stops and I can put back real material in ABCT and AS.  Just.  Waiting.  Be afraid by little friend.
2009-04-22T12:40:30+00:00,285434990,281766613,1,BeVeryAfraid,Meltdown (Woods book),
2010-06-18T07:38:28+00:00,368758212,362060694,1,BigPeople=BritishPhilistines,Credit crunch,
2010-06-18T07:31:39+00:00,368757465,368757391,1,BigPeople=BritishPhilistines,Affirmative action in the United States,
2010-06-18T07:30:59+00:00,368757391,368259185,1,BigPeople=BritishPhilistines,Affirmative action in the United States,
2010-06-18T07:29:14+00:00,368757207,0,1,BigPeople=BritishPhilistines,User:BigPeople=BritishPhilistines,[[WP:AES|←]]Created page with 'Bloody Philistines  Bumbling Pathetics  Burn People  British Petrolheads  Burp on the Planet  I gotta load of 'em...'
2010-06-18T08:09:58+00:00,368761337,0,1,BoE=BlindOafishEnglishmen,User:CounterfeitingKeynesians,"[[WP:AES|←]]Created page with 'cannot understand that printing worthless toilet paper doesn't do anything for long term economic growth, but does allow them to upgrade their own wives and palaces.'"
2010-06-18T08:08:28+00:00,368761208,368761005,1,BoE=BlindOafishEnglishmen,User:BoE=BlindOafishEnglishmen,
2010-06-18T08:06:26+00:00,368761005,0,1,BoE=BlindOafishEnglishmen,User:BoE=BlindOafishEnglishmen,
2010-06-18T08:05:07+00:00,368760875,368758470,1,BoE=BlindOafishEnglishmen,Talk:Austrian business cycle theory,
2010-06-18T07:53:56+00:00,368759752,368759731,1,BoE=BlindOafishEnglishmen,User talk:BigK HeX,
2010-06-18T07:53:43+00:00,368759731,368491309,1,BoE=BlindOafishEnglishmen,User talk:BigK HeX,
2009-03-19T10:27:27+00:00,278304005,0,1,BucklingUnderTheDebtDeathMarch,User:BucklingUnderTheDebtDeathMarch,[[WP:AES|←]]Created page with 'The collective weight of the debts on the working man's shoulders has buckled the economy.  The parasite has grown bigger than the host.  Will the parasite die or t…'
2009-03-19T10:24:06+00:00,278303675,278044237,1,BucklingUnderTheDebtDeathMarch,Systemic risk,[[WP:UNDO|Undid]] revision 278044237 by [[Special:Contributions/John Quiggin|John Quiggin]] ([[User talk:John Quiggin|talk]])
2008-08-18T10:23:53+00:00,232659414,232632654,1,BuddhaLives,Talk:Inflation,"/* I am unofficially banned here on Wikipedia, but I can carry on as normal. Very strange indeed. */"
2008-08-18T09:52:53+00:00,232655867,232615800,1,BuddhaLives,User talk:Gregalton,"Fascist censorship...even on your trivial little talk page??? You've hit a new low.  I thought you couldn't go lower than barbarically deleting Money as Debt ""rapidly and with salt"" but there it is."
2008-08-18T03:35:46+00:00,232612278,232609324,1,BuddhaLives,Talk:Criticism of fractional-reserve banking,/* Simple Description */
2008-08-18T03:12:27+00:00,232609324,232070062,1,BuddhaLives,Talk:Criticism of fractional-reserve banking,/* Simple Description */
2008-08-18T02:36:57+00:00,232604288,232592460,1,BuddhaLives,User talk:Gregalton,/* Inflation */
2008-08-18T01:14:54+00:00,232592460,232589991,1,BuddhaLives,User talk:Gregalton,/* Inflation */
2008-08-18T00:57:06+00:00,232589991,232589902,1,BuddhaLives,User talk:Gregalton,/* Inflation */
2008-08-18T00:56:23+00:00,232589902,232589666,1,BuddhaLives,User talk:Gregalton,/* Inflation */
2008-08-17T05:26:55+00:00,232442207,232442095,1,BuddhaLives,User talk:Gregalton,/* Inflation */
2008-08-17T05:25:55+00:00,232442095,232441587,1,BuddhaLives,User talk:Gregalton,/* Inflation */
2008-08-17T04:05:42+00:00,232433111,231431784,1,BuddhaLives,Talk:Credit crunch,/* Omission ! */
2008-08-17T03:52:28+00:00,232431534,232431404,1,BuddhaLives,User talk:Gregalton,/* Inflation */
2008-08-17T03:51:04+00:00,232431404,232430284,1,BuddhaLives,User talk:Gregalton,/* Inflation */
2008-08-17T03:42:07+00:00,232430284,232316671,1,BuddhaLives,User talk:Gregalton,/* Inflation */
2010-09-24T10:21:54+00:00,386718813,386718538,1,BuySilverNow,User talk:Xerographica,/* Survey */
2010-09-24T10:19:25+00:00,386718538,386712744,1,BuySilverNow,User talk:Xerographica,/* Survey */
2010-09-24T09:23:17+00:00,386712744,386712442,1,BuySilverNow,User talk:Xerographica,/* Survey */
2010-06-21T11:39:59+00:00,369342605,369126106,1,CentralBankersAreBlindLikeMoles,User talk:BigK HeX,/* You are now a Reviewer */
2010-06-21T11:26:45+00:00,369341280,369313706,1,CentralBankersAreBlindLikeMoles,The Prodigy,typo
2010-06-21T11:25:51+00:00,369341181,368935572,1,CentralBankersAreBlindLikeMoles,User talk:Satori Son,
2010-06-21T11:18:30+00:00,369340480,369171002,1,CentralBankersAreBlindLikeMoles,Affirmative action in the United States,
2010-08-28T03:30:55+00:00,381433253,381433025,1,CentralizedPowerAttractsZealots,User talk:BigK HeX,/* Semi-protection a sign of censorship to the average reader */
2010-08-28T03:28:59+00:00,381433025,380782768,1,CentralizedPowerAttractsZealots,User talk:BigK HeX,/* Peter Schiff predictions */
2010-08-27T18:29:24+00:00,381354670,381090909,1,CentralizedPowerAttractsZealots,B. A. Santamaria,clarify
2011-03-27T10:35:33+00:00,420958365,420956462,1,Chaos(NotTrueAnarchy)InTheUK,Malinvestment,/* Austrian Business Cycle Theory and Malinvestment */
2011-03-27T10:27:09+00:00,420957670,0,1,Chaos(NotTrueAnarchy)InTheUK,User:Chaos(NotTrueAnarchy)InTheUK,[[WP:AES|←]]Created page with 'Brown's Bottom Caused Economic Anarchy Which The People Blame on the Solution.  Stupid gits.  Ha Ha Ha!'
2010-05-30T03:12:15+00:00,364960225,363697514,1,CorruptCounterfeiters,Austrian school of economics,"It's still ""influential"" with AS circles (obviously) so need to qualify statement with ""widely"" to indicate it was more influential in its early phase"
2010-06-18T07:40:27+00:00,368758416,365040767,1,CounterfeitingKeynesians,Talk:Austrian business cycle theory,
2019-10-17T11:13:24+00:00,921705875,921580933,1,CryptoGold,Monetary reform,Very strong? I need one reference and I've done it.  It is strong because it exactly supports the edit.  End of story.
2010-11-12T10:31:56+00:00,396293044,396291910,1,DataDarkLBMA,Austrian school of economics,Blocked user?  No reason given for deletion.
2010-11-12T10:14:58+00:00,396291218,396291139,1,DataDarkLBMA,User talk:DataDarkLBMA,
2010-11-12T10:14:16+00:00,396291139,396110609,1,DataDarkLBMA,User talk:DataDarkLBMA,
2010-11-12T10:13:01+00:00,396291013,396290672,1,DataDarkLBMA,Embezzlement,Please don't edit war or you will be reported for 3RR
2010-11-12T10:12:12+00:00,396290918,396290464,1,DataDarkLBMA,Austrian school of economics,Please don't edit war or you will be reported for 3RR
2010-11-12T08:52:11+00:00,396283800,396283691,1,DataDarkLBMA,Austrian school of economics,/* Criticism of mainstream practices */  Simplify expression
2010-11-12T08:50:53+00:00,396283691,396283574,1,DataDarkLBMA,Austrian school of economics,/* Criticism of mainstream practices */  Clarify poor expression.  Again.
2010-11-12T08:49:15+00:00,396283574,396283254,1,DataDarkLBMA,Austrian school of economics,/* Criticism of mainstream practices */ Minor clarification of expression
2010-11-12T08:45:09+00:00,396283254,396281927,1,DataDarkLBMA,Austrian school of economics,/* Criticism of mainstream practices */  grammar
2010-11-12T08:30:50+00:00,396282090,396282024,1,DataDarkLBMA,Embezzlement,/* Safeguards against embezzlement */  correct possessive '
2010-11-12T08:30:03+00:00,396282024,396108275,1,DataDarkLBMA,Embezzlement,LK's allegations unfounded.  Allegn of sckpttry unproven.  Please address the substantive issues.  I assume you are not a lawyer?
2010-11-12T08:28:42+00:00,396281927,396112427,1,DataDarkLBMA,Austrian school of economics,"Sckppt investigation inconclusive, so deal with the substantive issues.  These edits are legit.  You and I both know it."
2010-11-11T11:20:07+00:00,396110609,396109869,1,DataDarkLBMA,User talk:DataDarkLBMA,
2010-11-11T11:16:25+00:00,396110302,396109868,1,DataDarkLBMA,Austrian school of economics,Edit summary has been provided and I'm simply adding a relevant quote in response to the request on the talk page.  Please read the ref. before reverting or editing or censoring.
2010-11-11T11:11:02+00:00,396109796,396109607,1,DataDarkLBMA,Austrian school of economics,/* Criticism of mainstream practices */
2010-11-11T11:09:06+00:00,396109607,396108136,1,DataDarkLBMA,Austrian school of economics,Please do not revert - I'm not a 'sockpuppet'.
2010-11-11T10:25:08+00:00,396105202,396104954,1,DataDarkLBMA,Austrian school of economics,/* Criticism of mainstream practices */
2010-11-11T10:22:47+00:00,396104954,396104904,1,DataDarkLBMA,Austrian school of economics,/* Criticism of mainstream practices */
2010-11-11T10:22:13+00:00,396104904,396104742,1,DataDarkLBMA,Austrian school of economics,/* Criticism of mainstream practices */
2010-11-11T10:20:39+00:00,396104742,396103597,1,DataDarkLBMA,Austrian school of economics,"/* Criticism of mainstream practices */  Fill out what the criticism of mainstream IS, before we launch into criticisms of the criticisms - as per request on the talk page by IP annon"
2010-11-11T10:10:46+00:00,396103597,396103338,1,DataDarkLBMA,Austrian school of economics,/* Criticism of the Austrian School */ 'concluded' too strong...there's ongoing debate...Steve Keen and others level the same comments against the mainstream
2010-11-11T10:08:35+00:00,396103338,395755718,1,DataDarkLBMA,Austrian school of economics,/* Criticism of mainstream practices */  not 'scientitific' but rather empiricism is the issue in contention - misleading terminology doesn't help
2010-11-08T13:54:12+00:00,395542955,395542063,1,DataDarkLBMA,Embezzlement,/* Safeguards against embezzlement */
2010-11-08T13:47:49+00:00,395542063,394287113,1,DataDarkLBMA,Embezzlement,/* Methods of embezzlement */
2010-09-21T11:14:43+00:00,386084328,386083642,1,DebtDukkha,Monetary reform,Also 3RR violation.  Please do not revert or you will be warned.
2010-09-21T11:07:36+00:00,386083642,386061627,1,DebtDukkha,Monetary reform,"I'm sorry, no it hasn't.  Please see investigation page.  Only RightLib was investigated."
2010-09-21T10:58:14+00:00,386082734,386082149,1,DebtDukkha,Full-reserve banking,"/* Reserve ratio */ Ref doesn't exist, statement is incorrect anyway as no FullRB advocate thinks term deposits shouldn't be loaned out.  Section redundant and removed."
2010-09-21T10:52:55+00:00,386082149,385862472,1,DebtDukkha,Full-reserve banking,/* The case for full reserve */  remove 'prominent' which is without RS
2010-09-21T06:21:33+00:00,386056327,386055093,1,DebtDukkha,Monetary reform,Please conduct an appropriate sockpuppet investigation before reverting again.  Thank you.
2010-09-21T05:42:06+00:00,386052445,385851702,1,DebtDukkha,Monetary reform,"I'm sorry, I'm no one's sockpuppet and I am not banned.  Wrong identity?  This may well be an innocent admin mistake.  Please address the substantive edits as I'm sure they're defensible.  Thank you."
2010-09-21T05:40:42+00:00,386052326,385302614,1,DebtDukkha,User talk:DebtDukkha,
2010-09-19T12:05:54+00:00,385710141,385709901,1,DebtDukkha,Fractional-reserve banking,'some' perhaps better
2010-09-19T12:03:55+00:00,385709901,385144028,1,DebtDukkha,Fractional-reserve banking,"'portion' is normally considered a small fraction, so is slightly misleading in this context."
2010-09-19T12:01:20+00:00,385709601,385702253,1,DebtDukkha,Monetary reform,/* See also */ Remove links as not sufficiently relevant to topic
2010-09-19T10:59:52+00:00,385702253,385702149,1,DebtDukkha,Monetary reform,/* Fractional Reserve Banking */ minor expression
2010-09-19T10:59:00+00:00,385702149,385701269,1,DebtDukkha,Monetary reform,/* Fractional Reserve Banking */ Cites added and specific name of Murray Rothbard used to clarify criticism
2010-09-19T10:51:19+00:00,385701269,385701059,1,DebtDukkha,Monetary reform,/* Fractional Reserve Banking */ Expression
2010-09-19T10:49:35+00:00,385701059,385490774,1,DebtDukkha,Monetary reform,"/* Fractional Reserve Banking */ Removed redundant material covered in FRB article itself.  Also, some material was outdated.  Prudential regulations have replaced reserve requirements."
2010-09-19T10:44:12+00:00,385700503,385689534,1,DebtDukkha,Full-reserve banking,/* Debate over full-reserve banking */ redundancy removed
2010-09-19T08:55:44+00:00,385689534,385615361,1,DebtDukkha,Full-reserve banking,expression
2010-09-18T22:33:35+00:00,385615361,385613385,1,DebtDukkha,Full-reserve banking,wrong tense
2010-09-18T22:20:14+00:00,385613385,385497614,1,DebtDukkha,Full-reserve banking,/* Debate over full-reserve banking */ N not M
2010-09-18T07:29:20+00:00,385497614,385490484,1,DebtDukkha,Full-reserve banking,/* Criticisms of full-reserve banking combined with a gold standard */
2010-09-18T06:15:55+00:00,385490774,383970308,1,DebtDukkha,Monetary reform,no others are described or refed with RS so let's be mroe concise.
2010-09-18T06:13:01+00:00,385490484,385490244,1,DebtDukkha,Full-reserve banking,/* Debate over full-reserve banking */
2010-09-18T06:10:53+00:00,385490244,385446178,1,DebtDukkha,Full-reserve banking,minor clean ups
2010-09-17T23:44:42+00:00,385446178,385446049,1,DebtDukkha,Full-reserve banking,
2010-09-17T23:43:23+00:00,385446049,385445887,1,DebtDukkha,Full-reserve banking,
2010-09-17T23:41:53+00:00,385445887,385445727,1,DebtDukkha,Full-reserve banking,
2010-09-17T23:40:25+00:00,385445727,385445540,1,DebtDukkha,Full-reserve banking,
2010-09-17T23:38:57+00:00,385445540,385445446,1,DebtDukkha,Full-reserve banking,fix wikilink
2010-09-17T23:38:05+00:00,385445446,385445198,1,DebtDukkha,Full-reserve banking,
2010-09-17T23:35:55+00:00,385445198,385359744,1,DebtDukkha,Full-reserve banking,Clarify
2010-09-17T14:19:37+00:00,385359744,385359088,1,DebtDukkha,Full-reserve banking,/* Criticisms of full-reserve banking combined with a gold standard */
2010-09-17T14:15:24+00:00,385359088,385358664,1,DebtDukkha,Full-reserve banking,/* Debate over full-reserve banking */
2010-09-17T14:12:42+00:00,385358664,385358398,1,DebtDukkha,Full-reserve banking,/* Debate over full-reserve banking */  No wikilink for Leamer
2010-09-17T14:11:14+00:00,385358398,385358274,1,DebtDukkha,Full-reserve banking,/* Debate over full-reserve banking */ spelling
2010-09-17T14:10:26+00:00,385358274,385355955,1,DebtDukkha,Full-reserve banking,/* Debate over full-reserve banking */ Fix cite
2010-09-17T13:55:43+00:00,385355955,385348516,1,DebtDukkha,Full-reserve banking,/* Debate over full-reserve banking */ grammar
2010-09-17T13:03:11+00:00,385348516,385143769,1,DebtDukkha,Full-reserve banking,/* Debate over full-reserve banking */ obvious typo
2010-09-16T12:22:09+00:00,385157452,385157384,1,DebtDukkha,User:DebtDukkha,
2010-09-16T12:21:34+00:00,385157384,385157321,1,DebtDukkha,User:DebtDukkha,/* Essays on Wikipedia Behavior */
2010-09-16T12:20:55+00:00,385157321,0,1,DebtDukkha,User:DebtDukkha,"[[WP:AES|←]]Created page with 'Welcome to my page.  Not much here, right now, but hopefully more is to come.  That so many people can come together and cooperatively create the greatest repositor...'"
2010-09-16T10:10:49+00:00,385144028,385010642,1,DebtDukkha,Fractional-reserve banking,/* Criticism */ Decision not to merge; discussion closed.
2010-09-16T10:07:50+00:00,385143769,385143485,1,DebtDukkha,Full-reserve banking,/* Criticism */ link
2010-09-16T10:04:06+00:00,385143485,385143145,1,DebtDukkha,Full-reserve banking,better internal wp ref
2010-09-16T10:00:33+00:00,385143145,385142138,1,DebtDukkha,Full-reserve banking,/* Debate over full-reserve banking */  Grammar
2010-09-16T09:49:29+00:00,385142138,385142022,1,DebtDukkha,Full-reserve banking,/* Criticisms of full-reserve banking combined with a gold standard */
2010-09-16T09:48:08+00:00,385142022,385141863,1,DebtDukkha,Full-reserve banking,/* Debate over full-reserve banking */
2010-09-16T09:46:19+00:00,385141863,385141627,1,DebtDukkha,Full-reserve banking,"rearrange as some paras were in inappropriate sections, having nothing whatever to do with gold"
2010-09-16T09:43:17+00:00,385141627,385141114,1,DebtDukkha,Full-reserve banking,"/* Criticisms of full-reserve banking combined with a gold standard */ Place Selgin in more relevant section, avoid duplication of quote"
2010-09-16T09:36:55+00:00,385141114,385141015,1,DebtDukkha,Full-reserve banking,
2010-09-16T09:35:50+00:00,385141015,385140955,1,DebtDukkha,Full-reserve banking,/* Debate over full-reserve banking */
2010-09-16T09:35:07+00:00,385140955,385140822,1,DebtDukkha,Full-reserve banking,/* Debate over full-reserve banking */
2010-09-16T09:33:48+00:00,385140822,385140696,1,DebtDukkha,Full-reserve banking,/* Debate over full-reserve banking */  Tightened up arguments for frac reserve banking.  Not strictly intermediation but issues of capital formation - see cites.
2010-09-16T09:32:29+00:00,385140696,384924495,1,DebtDukkha,Full-reserve banking,"Clean up cites, add recent Daily Telegraph article on developments in the UK"
2020-03-06T14:13:15+00:00,944224540,944224253,1,DoingFluSpanishStyle,Monetary reform,/* International organizations and developing nations */
2020-03-06T14:10:50+00:00,944224253,944224184,1,DoingFluSpanishStyle,Monetary reform,/* Money creation by the central bank */
2020-03-06T14:10:20+00:00,944224184,944203552,1,DoingFluSpanishStyle,Monetary reform,/* Reserve requirements */
2020-03-06T14:09:30+00:00,944224075,0,1,DoingFluSpanishStyle,User:DoingFluSpanishStyle,[[WP:AES|←]]Created page with 'Frances Boyle'
2011-06-06T07:47:30+00:00,432813679,432809174,1,DSKisPepeLePew,Full-reserve banking,/* Criticism */
2011-06-06T07:00:40+00:00,432809174,432809079,1,DSKisPepeLePew,Full-reserve banking,/* Criticism */
2011-06-06T06:59:37+00:00,432809079,432808955,1,DSKisPepeLePew,Full-reserve banking,/* Criticism */
2011-06-06T06:58:08+00:00,432808955,432591879,1,DSKisPepeLePew,Full-reserve banking,/* Criticism */ Most of this section was rubbish and incorrect.  Cleaned up.
2011-05-20T03:06:59+00:00,429985523,429985454,1,DSKisPepeLePew,Andreja Pejić,/* Career */
2011-05-20T03:06:20+00:00,429985454,429985211,1,DSKisPepeLePew,Andreja Pejić,
2011-05-20T03:03:41+00:00,429985211,429984250,1,DSKisPepeLePew,Andreja Pejić,
2011-05-20T02:53:27+00:00,429984250,429969850,1,DSKisPepeLePew,Andreja Pejić,typos
2011-05-20T00:23:38+00:00,429969850,429969538,1,DSKisPepeLePew,Andreja Pejić,no link
2011-05-20T00:20:34+00:00,429969538,429912372,1,DSKisPepeLePew,Andreja Pejić,Typos
2011-05-17T11:30:40+00:00,429543809,0,1,DSKisPepeLePew,User:DSKisPepeLePew,[[WP:AES|←]]Created page with '[http://www.youtube.com/watch?v=JEdBndu0YUM How DSK will be best remembered...]'
2011-05-17T11:27:55+00:00,429543537,424930663,1,DSKisPepeLePew,Monetary reform,/* See also */  Alexander Del Mar does not deserve an internal link.  No justification for such notability from the sources or indeed the article itself.  Rothbard probably a better candidate.
2012-06-13T12:34:59+00:00,497387565,497385999,1,DubFXisGOLD,Bank run,Didn't occur with Bank of Amsterdam
2012-06-13T12:32:57+00:00,497387373,497387287,1,DubFXisGOLD,Monetary reform,As a compromise I'll ref to other pages that are self-explanatory
2012-06-13T12:32:14+00:00,497387287,497385950,1,DubFXisGOLD,Monetary reform,/* Fractional Reserve Banking */   Have no idea what you mean.  Repeating (poorly) the way FRB works is not the role of this page.  It is to identify why FRB is a central feature of the monetary reform movement.
2012-06-13T12:20:08+00:00,497385999,496381379,1,DubFXisGOLD,Bank run,
2012-06-13T12:17:00+00:00,497385693,497385552,1,DubFXisGOLD,Monetary reform,/* Fractional Reserve Banking */
2012-06-13T12:15:40+00:00,497385552,497137835,1,DubFXisGOLD,Monetary reform,
2012-06-13T12:14:21+00:00,497385431,0,1,DubFXisGOLD,User:DubFXisGOLD,[[WP:AES|←]]Created page with 'Countdown to bank runs across Europe.  3...   2...   1...'
2010-05-24T04:15:13+00:00,363857350,363856796,1,DumbRichSmartPoor,Systemic risk,
2010-05-24T04:09:28+00:00,363856796,363856617,1,DumbRichSmartPoor,Systemic risk,/* Explanation */
2010-05-24T04:07:38+00:00,363856617,363856547,1,DumbRichSmartPoor,Systemic risk,/* Explanation */
2010-05-24T04:07:01+00:00,363856547,363856202,1,DumbRichSmartPoor,Systemic risk,/* Explanation */
2010-05-24T04:03:42+00:00,363856202,362598005,1,DumbRichSmartPoor,Systemic risk,/* Explanation */
2010-05-24T04:01:03+00:00,363855930,0,1,DumbRichSmartPoor,User:DumbRichSmartPoor,
2010-08-28T08:32:48+00:00,381463861,381463730,1,EconomicCancer,Non-aggression principle,added directly relevant ref
2010-08-28T08:31:32+00:00,381463730,381463298,1,EconomicCancer,Non-aggression principle,
2010-08-28T08:26:26+00:00,381463298,381450016,1,EconomicCancer,Non-aggression principle,Buddhism clearly should be included here.
2010-08-26T10:20:01+00:00,381090909,378256090,1,EconomicCancer,B. A. Santamaria,"/* Late writings */  he was an anti-communist, but a moderate supporter of fascism, which is a form of socialism"
2010-08-04T12:39:47+00:00,377109920,377109457,1,EndgameOfDeath,International law,
2010-08-04T12:35:38+00:00,377109457,377109362,1,EndgameOfDeath,International law,
2010-08-04T12:34:57+00:00,377109362,375775485,1,EndgameOfDeath,International law,Not provinces - clearly 'States' is the only accurate term
2019-11-22T12:18:55+00:00,927423556,0,1,EpsteinDidNotDie,User:EpsteinDidNotDie,[[WP:AES|←]]Created page with 'I'm new to WP.  I think WP is great and I know it's carefully curated so it should be packed with accurate and exciting information.  I hope I can do it justice...'
2019-11-22T12:17:48+00:00,927423444,927423399,1,EpsteinDidNotDie,Austrian business cycle theory,
2019-11-22T12:17:14+00:00,927423399,927348505,1,EpsteinDidNotDie,Austrian business cycle theory,Revert exits of known sock
2010-08-18T09:05:13+00:00,379551608,379550765,1,Eric155,Habib,
2010-08-18T08:55:59+00:00,379550765,379550718,1,Eric155,Habib,
2010-08-18T08:55:32+00:00,379550718,370620535,1,Eric155,Habib,
2010-08-16T04:34:58+00:00,379162620,378728804,1,Eric155,Talk:Mamdouh Habib,"/* non-divulged evidence has ""no value""? */ new section"
2010-08-16T04:25:02+00:00,379161649,379161497,1,Eric155,Mamdouh Habib,/* Arrest */
2010-08-16T04:23:28+00:00,379161497,378467707,1,Eric155,Mamdouh Habib,/* Entrance into Australian politics */
2010-08-04T09:03:40+00:00,377086949,377085711,1,Eric155,Talk:Muhamed Haneef,/* Amusing aside. */
2010-08-04T08:50:23+00:00,377085711,369250280,1,Eric155,Talk:Muhamed Haneef,/* But what if Haneef is not so innocent? */ new section
2010-08-03T08:56:22+00:00,376906846,329574054,1,Eric155,Talk:Lepadidae,"/* ""Erected"" by Charles Darwin? */ new section"
2010-08-03T08:51:20+00:00,376906331,310052867,1,Eric155,Talk:Ginger Meggs,/* Pogo vs Ginger */ new section
2010-07-31T10:01:05+00:00,376403339,376403044,1,Eric155,Talk:Jon Cleary,/* Jon Cleary's obit. */
2010-07-31T09:58:22+00:00,376403044,376380067,1,Eric155,Talk:Jon Cleary,/* Jon Cleary's obit. */
2010-07-31T09:52:37+00:00,376402500,374047864,1,Eric155,Malone,/* Fictional characters */
2010-07-31T05:44:55+00:00,376380833,375964670,1,Eric155,Talk:Mad (magazine),/* When did MAD start to go downhill? */
2010-07-31T05:36:40+00:00,376380067,376344298,1,Eric155,Talk:Jon Cleary,/* Jon Cleary's obit. */
2010-07-31T05:15:21+00:00,376378045,376377870,1,Eric155,Wikipedia:Reference desk/Science,/* how many people have drifted off to space irrevocably while on moonwalks */
2010-07-30T11:29:03+00:00,376245756,376242109,1,Eric155,User talk:Chemicalinterest,/* Evolutionary adaptation queuing problem */
2010-07-30T09:27:16+00:00,376233657,158281992,1,Eric155,Talk:Jon Cleary,/* Jon Cleary's obit. */ new section
2010-07-30T09:19:41+00:00,376232921,376226896,1,Eric155,User talk:Eric155,/* Wow */
2010-07-30T08:11:23+00:00,376226896,375928207,1,Eric155,User talk:Eric155,
2010-07-30T08:10:11+00:00,376226786,376216334,1,Eric155,User talk:Chemicalinterest,/* Evolutionary adaptation queuing problem */ new section
2010-07-30T07:59:44+00:00,376225869,376219117,1,Eric155,Wikipedia:Reference desk/Science,/* Evolutionary adaption queuing problem */
2010-07-28T07:29:58+00:00,375873030,367707608,1,Eric155,Talk:Mad (magazine),/* When did MAD start to go downhill? */ new section
2010-07-28T06:40:59+00:00,375868914,375859363,1,Eric155,Wikipedia:Reference desk/Science,/* Evolutionary adaption queuing problem */ new section
2010-07-26T06:26:16+00:00,375500980,375497117,1,Eric155,Wikipedia:Reference desk/Miscellaneous,/* Can you name this author? */ new section
2011-06-23T14:24:52+00:00,435816922,435789572,1,EuroRIP,User talk:EuroRIP,/* Risk in QE */
2011-06-23T14:23:14+00:00,435816672,435816575,1,EuroRIP,Quantitative easing,
2011-06-23T14:22:33+00:00,435816575,435761244,1,EuroRIP,Quantitative easing,Stop edit warring.  Please liaise with Andrew before editing further.  This is the only reasonable version at this stage because 'more effective than intended' is a ridiculous expression.
2011-06-23T09:14:45+00:00,435783752,435783707,1,EuroRIP,User talk:EuroRIP,/* Risk in QE */
2011-06-23T09:14:18+00:00,435783707,435783558,1,EuroRIP,User talk:EuroRIP,/* Risk in QE */
2011-06-23T09:12:46+00:00,435783558,435764517,1,EuroRIP,User talk:EuroRIP,/* Risk in QE */
2011-06-22T23:43:09+00:00,435724584,435635122,1,EuroRIP,Talk:Libertarianism,/* Taxonomy - take 2 */
2011-06-22T23:32:24+00:00,435723360,435722472,1,EuroRIP,Quantitative easing,
2011-06-22T01:26:46+00:00,435564323,435564155,1,EuroRIP,Quantitative easing,
2011-06-22T01:25:36+00:00,435564155,435537996,1,EuroRIP,Quantitative easing,"No reason given for removing this explanation.  Sentence does not make sense without explanation (""more effective""?)"
2011-06-21T08:26:00+00:00,435423756,435352651,1,EuroRIP,User talk:Andrewedwardjudd,/* Edit warring at Quantitative easing */
2011-06-21T00:02:14+00:00,435369511,435369161,1,EuroRIP,2007–2008 financial crisis,/* Regulatory proposals and long-term responses */
2011-06-20T23:59:28+00:00,435369161,435298505,1,EuroRIP,2007–2008 financial crisis,/* Role of economic forecasting */ correcting obvious typos
2011-06-20T23:53:56+00:00,435368498,435368299,1,EuroRIP,Quantitative easing,false positive
2011-06-20T23:52:29+00:00,435368289,435257608,1,EuroRIP,Quantitative easing,explain confusing phrasing
2011-06-20T04:17:50+00:00,435213125,435211422,1,EuroRIP,Quantitative easing,add internal link and minor clean up - no need to capitalize
2011-06-20T00:46:22+00:00,435188815,435166390,1,EuroRIP,Quantitative easing,minor typo - space between words.
2011-05-10T05:54:59+00:00,428377816,428213043,1,EveryoneIsUsefulAtTheirTrueValue,User talk:Wikipedianamepolicysucks,
2011-04-29T03:39:35+00:00,426500358,426267967,1,EveryoneIsUsefulAtTheirTrueValue,User talk:Andrewedwardjudd,/* Use of talk pages */
2011-04-29T03:36:18+00:00,426499972,0,1,EveryoneIsUsefulAtTheirTrueValue,User:EveryoneIsUsefulAtTheirTrueValue,"[[WP:AES|←]]Created page with 'Say's Law Updated.  And that's the reason Shyster Banksters and Politicians hate gold.  Because without printing the $$$ their ""worth"" would fall to their true valu...'"
2010-08-07T00:53:59+00:00,377572737,377567216,1,EveryShysterForHimself,Money as Debt,This was a reasonable edit.  Please don't revert without discussion on talk page.
2010-08-07T00:53:19+00:00,377572674,0,1,EveryShysterForHimself,User:EveryShysterForHimself,[[WP:AES|←]]Created page with 'Confirmed not supected sockppt of Karmaisking'
2011-05-30T12:49:31+00:00,431644276,431636549,1,EvilLittleWeasel,Andreja Pejić,
2011-05-19T12:48:16+00:00,429875089,429874959,1,EvilLittleWeasel,Andreja Pejić,/* Career */
2011-05-19T12:47:06+00:00,429874959,429874508,1,EvilLittleWeasel,Andreja Pejić,/* Career */
2011-05-19T12:43:22+00:00,429874508,429874251,1,EvilLittleWeasel,Andreja Pejić,/* Career */
2011-05-19T12:40:59+00:00,429874251,429873265,1,EvilLittleWeasel,Andreja Pejić,
2011-05-19T12:32:01+00:00,429873265,429872972,1,EvilLittleWeasel,Andreja Pejić,"Correct obvious factual errors and add reference.  ""Australian-born"" is simply incorrect.  Terrible that this error has stayed in for so long."
2011-05-19T12:29:28+00:00,429872972,429872273,1,EvilLittleWeasel,Andreja Pejić,
2011-05-19T12:22:53+00:00,429872273,429872184,1,EvilLittleWeasel,Andreja Pejić,
2011-05-19T12:22:09+00:00,429872184,429751717,1,EvilLittleWeasel,Andreja Pejić,
2011-05-13T11:53:32+00:00,428910313,0,1,EvilLittleWeasel,User:EvilLittleWeasel,[[WP:AES|←]]Created page with '==This has all happened many times before== BigK Hex is just a boring old censor.  He's done this [http://en.wikipedia.org/w/index.php?title=Criticism_of_fractional...'
2011-04-30T05:54:44+00:00,426680636,426676649,1,EvilLittleWeasel,User talk:EvilLittleWeasel,
2011-04-30T01:53:54+00:00,426659557,0,1,EvilLittleWeasel,User talk:EvilLittleWeasel,[[WP:AES|←]]Created page with 'Additional sockppts associated with this IP have been created.  Enjoy finding them.'
2011-04-30T01:48:53+00:00,426659057,426500358,1,EvilLittleWeasel,User talk:Andrewedwardjudd,/* This has all happened many times before */
2011-04-30T01:43:07+00:00,426658536,426658442,1,EvilLittleWeasel,Wikipedia:Mediation Cabal/Cases/12 April 2011/Fractional-reserve banking,/* How long are we required to pretend there is any hope of compromise before we move to the next stage? */
2011-04-30T01:42:08+00:00,426658442,426657507,1,EvilLittleWeasel,Wikipedia:Mediation Cabal/Cases/12 April 2011/Fractional-reserve banking,/* How long are we required to pretend there is any hope of compromise before we move to the next stage? */
2011-04-30T01:31:44+00:00,426657507,426656947,1,EvilLittleWeasel,Wikipedia:Mediation Cabal/Cases/12 April 2011/Fractional-reserve banking,/* How long are we required to pretend there is any hope of compromise before we move to the next stage? */
2011-04-30T01:26:22+00:00,426656947,426656204,1,EvilLittleWeasel,Wikipedia:Mediation Cabal/Cases/12 April 2011/Fractional-reserve banking,/* How long are we required to pretend there is any hope of compromise before we move to the next stage? */
2011-04-30T01:18:25+00:00,426656204,426528933,1,EvilLittleWeasel,Wikipedia:Mediation Cabal/Cases/12 April 2011/Fractional-reserve banking,/* How long are we required to pretend there is any hope of compromise before we move to the next stage? */
2010-08-06T10:19:15+00:00,377455829,0,1,EvilPays,User:EvilPays,[[WP:AES|←]]Created page with '[http://www.marketoracle.co.uk/Article4489.html until it doesn't]'
2015-10-01T02:15:45+00:00,683566472,682612692,1,FiatMoneyWillDieInTheEnd,Austrian school of economics,/* Role of government disputed */
2015-10-01T02:06:42+00:00,683565445,683154072,1,FiatMoneyWillDieInTheEnd,Austrian business cycle theory,Minor
2009-03-18T02:47:53+00:00,278021080,278005173,1,FranksFannieSmellsLikeHerbs,Systemic risk,"Trust me, these were all reasonable edits.  I know you wouldn't understand, but just trust me on this one."
2010-06-18T07:46:03+00:00,368758961,368758794,1,FRB=FraudulentRetardedBanking,Talk:Criticism of fractional-reserve banking,/* Unnecessary Censorship */
2012-10-26T03:32:57+00:00,519876091,519858823,1,FRB123,Fractional-reserve banking,
2012-10-25T02:01:23+00:00,519680422,519008448,1,FRB123,Jesús Huerta de Soto,Slanderous association with Fascism removed.  Appalling this was allowed to stay in.
2012-10-25T01:25:17+00:00,519675844,519577567,1,FRB123,Fractional-reserve banking,See talk. 3RR
2012-10-24T11:41:45+00:00,519554577,519512630,1,FRB123,Austrian school of economics,Deleted sentence totally inappropriate.  Neutral ref provided to support reinstatement of crucial sentence.
2012-10-24T10:36:05+00:00,519547146,519514701,1,FRB123,Talk:Fractional-reserve banking,/* Maturity Transformation vs Financial Intermediation */
2012-10-24T10:33:37+00:00,519546829,519506281,1,FRB123,Fractional-reserve banking,That a lie and you know it.  No source says FRB provides FI and FullRB doesn't.  Are you so cornered you have to make up lies now?  It's almost laughable now.  This isn't OR so much as BS.
2012-10-24T10:24:38+00:00,519545820,519513982,1,FRB123,Talk:Austrian school of economics,/* Axiomatic Truths */
2012-10-24T04:48:39+00:00,519514701,519514675,1,FRB123,Talk:Fractional-reserve banking,/* IMF proposes eliminating government debt by eliminating fractional reserve banking */
2012-10-24T04:48:22+00:00,519514675,519514616,1,FRB123,Talk:Fractional-reserve banking,/* IMF proposes eliminating government debt by eliminating fractional reserve banking */
2012-10-24T04:47:39+00:00,519514616,519487591,1,FRB123,Talk:Fractional-reserve banking,/* IMF proposes eliminating government debt by eliminating fractional reserve banking */
2012-10-24T04:41:00+00:00,519513982,519513412,1,FRB123,Talk:Austrian school of economics,/* Axiomatic Truths */
2012-10-24T04:35:32+00:00,519513412,519510118,1,FRB123,Talk:Austrian school of economics,/* Axiomatic Truths */
2012-10-24T04:27:40+00:00,519512630,519503390,1,FRB123,Austrian school of economics,pointless word removed
2012-10-24T00:44:50+00:00,519487118,519486825,1,FRB123,Talk:Austrian school of economics,/* Axiomatic Truths */
2012-10-24T00:42:25+00:00,519486825,519486786,1,FRB123,Talk:Austrian school of economics,/* Axiomatic Truths */
2012-10-24T00:42:00+00:00,519486786,519480435,1,FRB123,Talk:Austrian school of economics,/* Axiomatic Truths */
2012-10-23T23:36:53+00:00,519479098,519373232,1,FRB123,Talk:Austrian school of economics,/* Axiomatic Truths */
2012-10-23T09:38:27+00:00,519359486,519359286,1,FRB123,Talk:Fractional-reserve banking,/* IMF proposes eliminating government debt by eliminating fractional reserve banking */
2012-10-23T09:28:45+00:00,519358416,519354644,1,FRB123,Talk:Fractional-reserve banking,/* IMF proposes eliminating government debt by eliminating fractional reserve banking */
2012-10-23T09:02:07+00:00,519355397,519355355,1,FRB123,Fractional-reserve banking,/* Economic function */
2012-10-23T09:01:37+00:00,519355355,519355186,1,FRB123,Fractional-reserve banking,/* Economic function */
2012-10-23T08:59:57+00:00,519355186,519287410,1,FRB123,Fractional-reserve banking,IMF paper proves the point
2012-10-23T08:55:14+00:00,519354644,519354509,1,FRB123,Talk:Fractional-reserve banking,/* IMF proposes eliminating government debt by eliminating fractional reserve banking */
2012-10-23T08:54:00+00:00,519354509,519354434,1,FRB123,Talk:Fractional-reserve banking,/* IMF proposes eliminating government debt by eliminating fractional reserve banking */
2012-10-23T08:53:14+00:00,519354434,519351734,1,FRB123,Talk:Fractional-reserve banking,/* IMF proposes eliminating government debt by eliminating fractional reserve banking */
2012-10-23T08:26:21+00:00,519351734,519351584,1,FRB123,Talk:Fractional-reserve banking,/* IMF proposes eliminating government debt by eliminating fractional reserve banking */
2012-10-23T08:24:55+00:00,519351584,519351486,1,FRB123,Talk:Fractional-reserve banking,/* IMF proposes eliminating government debt by eliminating fractional reserve banking */
2012-10-23T08:24:01+00:00,519351486,519351285,1,FRB123,Talk:Fractional-reserve banking,/* IMF proposes eliminating government debt by eliminating fractional reserve banking */
2012-10-23T08:22:14+00:00,519351285,519351189,1,FRB123,Talk:Fractional-reserve banking,/* IMF proposes eliminating government debt by eliminating fractional reserve banking */
2012-10-23T08:21:14+00:00,519351189,519337627,1,FRB123,Talk:Fractional-reserve banking,/* IMF proposes eliminating government debt by eliminating fractional reserve banking */
2012-10-23T05:51:58+00:00,519337627,519337546,1,FRB123,Talk:Fractional-reserve banking,/* IMF proposes eliminating government debt by eliminating fractional reserve banking */
2012-10-23T05:50:47+00:00,519337546,519337332,1,FRB123,Talk:Fractional-reserve banking,/* IMF proposes eliminating government debt by eliminating fractional reserve banking */
2012-10-23T05:47:57+00:00,519337332,519337187,1,FRB123,Talk:Fractional-reserve banking,/* IMF proposes eliminating government debt by eliminating fractional reserve banking */
2012-10-23T05:46:19+00:00,519337187,519334632,1,FRB123,Talk:Fractional-reserve banking,/* IMF proposes eliminating government debt by eliminating fractional reserve banking */
2012-10-23T05:17:21+00:00,519334632,519334087,1,FRB123,Talk:Fractional-reserve banking,/* IMF proposes eliminating government debt by eliminating fractional reserve banking */
2012-10-23T05:11:42+00:00,519334087,519333909,1,FRB123,Talk:Fractional-reserve banking,/* IMF proposes eliminating government debt by eliminating fractional reserve banking */
2012-10-23T05:09:50+00:00,519333909,519333832,1,FRB123,Talk:Fractional-reserve banking,/* IMF proposes eliminating government debt by eliminating fractional reserve banking */
2012-10-23T05:09:08+00:00,519333832,519248855,1,FRB123,Talk:Fractional-reserve banking,/* IMF proposes eliminating government debt by eliminating fractional reserve banking */
2012-10-23T04:57:56+00:00,519332763,519325327,1,FRB123,Talk:Austrian school of economics,/* Axiomatic Truths */
2012-10-23T03:41:58+00:00,519324417,519239370,1,FRB123,Talk:Austrian school of economics,/* Axiomatic Truths */
2012-10-22T22:56:03+00:00,519288043,519287997,1,FRB123,Full-reserve banking,/* Debate over full-reserve banking */
2012-10-22T22:55:40+00:00,519287997,519287821,1,FRB123,Full-reserve banking,/* Debate over full-reserve banking */
2012-10-22T22:54:26+00:00,519287821,518078767,1,FRB123,Full-reserve banking,
2012-10-22T22:51:29+00:00,519287410,519287005,1,FRB123,Fractional-reserve banking,/* Criticisms */  Better place
2012-10-22T22:48:20+00:00,519287005,519144407,1,FRB123,Fractional-reserve banking,/* Criticisms */ Ref
2012-10-22T12:13:53+00:00,519191410,519143630,1,FRB123,Austrian school of economics,/* Influence */ Dead link
2012-10-22T12:09:34+00:00,519190880,519190813,1,FRB123,Talk:Austrian school of economics,/* Axiomatic Truths */
2012-10-22T12:09:09+00:00,519190813,519190496,1,FRB123,Talk:Austrian school of economics,/* Axiomatic Truths */
2012-10-22T12:06:41+00:00,519190496,519190317,1,FRB123,Talk:Austrian school of economics,/* Axiomatic Truths */
2012-10-22T12:05:14+00:00,519190317,519189809,1,FRB123,Talk:Austrian school of economics,/* Axiomatic Truths */
2012-10-22T12:01:16+00:00,519189809,519189752,1,FRB123,Talk:Austrian school of economics,/* Axiomatic Truths */
2012-10-22T12:00:52+00:00,519189752,519189568,1,FRB123,Talk:Austrian school of economics,/* Axiomatic Truths */
2012-10-22T11:59:24+00:00,519189568,519188980,1,FRB123,Talk:Austrian school of economics,/* Axiomatic Truths */
2012-10-22T11:54:45+00:00,519188980,519188869,1,FRB123,Talk:Austrian school of economics,/* Axiomatic Truths */
2012-10-22T11:53:59+00:00,519188869,519187705,1,FRB123,Talk:Austrian school of economics,/* Axiomatic Truths */
2012-10-22T04:49:01+00:00,519144407,519119213,1,FRB123,Fractional-reserve banking,/* Criticisms */
2012-10-22T04:42:07+00:00,519143630,519143556,1,FRB123,Austrian school of economics,many incorrect and overstates the case
2012-10-22T04:41:18+00:00,519143556,519120862,1,FRB123,Austrian school of economics,grammar
2012-10-21T23:19:01+00:00,519101946,518892547,1,FRB123,Talk:Austrian school of economics,/* Axiomatic Truths */
2012-10-21T23:09:27+00:00,519100721,519100224,1,FRB123,Austrian school of economics,"In addition ""mainstream"" is defined and linked in the very same sentence.  It IS defined."
2012-10-21T23:05:30+00:00,519100224,519019588,1,FRB123,Austrian school of economics,"That's ridiculous.  Austrians are not critical of their own methodology.  ""Economists"" imply all of them.  This is basic logic, not weasel words.  No mainstream economist would object to the sentence and no one had a problem before you."
2012-10-21T03:36:53+00:00,518966340,518966185,1,FRB123,Austrian business cycle theory,/* Assertions */  Simplify
2012-10-21T03:35:01+00:00,518966185,515816334,1,FRB123,Austrian business cycle theory,Repeated below and unnecessary to have its own section.
2012-10-21T03:30:43+00:00,518965785,518965634,1,FRB123,Austrian school of economics,
2012-10-21T03:29:14+00:00,518965634,518964357,1,FRB123,Austrian school of economics,Great work SPECIFICO but slow down and be careful.  Some sloppy editing...
2012-10-20T11:46:18+00:00,518858914,518830638,1,FRB123,Austrian school of economics,/* Inflation */  Ref supplied
2012-10-20T05:36:51+00:00,518830638,518773742,1,FRB123,Austrian school of economics,
2012-10-19T13:08:56+00:00,518698649,518698584,1,FRB123,Maturity transformation,
2012-10-19T13:08:24+00:00,518698584,518698313,1,FRB123,Maturity transformation,
2012-10-19T13:06:12+00:00,518698313,518698232,1,FRB123,Maturity transformation,
2012-10-19T13:05:36+00:00,518698232,0,1,FRB123,Maturity transformation,[[WP:AES|←]]Created page with ''''Maturity transformation''' refers to the practice of fractional reserve banks (or other financial institutions) borrowing money on shorter timeframes than the...'
2012-10-19T13:02:03+00:00,518697778,518501730,1,FRB123,Talk:Fractional-reserve banking,/* Maturity Transformation vs Financial Intermediation */
2012-10-19T01:04:16+00:00,518616365,518299409,1,FRB123,Austrian school of economics,
2012-10-18T12:26:53+00:00,518501730,518501633,1,FRB123,Talk:Fractional-reserve banking,/* Maturity Transformation vs Financial Intermediation */
2012-10-18T12:26:13+00:00,518501633,518461524,1,FRB123,Talk:Fractional-reserve banking,/* Maturity Transformation vs Financial Intermediation */
2012-10-18T12:23:06+00:00,518501222,518448362,1,FRB123,Fractional-reserve banking,/* How it works */  See talk
2012-10-18T06:17:58+00:00,518461524,518461475,1,FRB123,Talk:Fractional-reserve banking,/* Maturity Transformation vs Financial Intermediation */
2012-10-18T06:17:23+00:00,518461475,518447211,1,FRB123,Talk:Fractional-reserve banking,/* Maturity Transformation vs Financial Intermediation */
2012-10-17T23:41:10+00:00,518412140,518078175,1,FRB123,Talk:Full-reserve banking,/* Financial intermediation vs Maturity transformation */
2012-10-17T23:36:56+00:00,518411445,518300465,1,FRB123,Fractional-reserve banking,/* See Also */
2012-10-17T23:35:11+00:00,518411153,518404721,1,FRB123,Talk:Fractional-reserve banking,/* Maturity Transformation vs Financial Intermediation */
2012-10-17T11:03:52+00:00,518300465,518268971,1,FRB123,Fractional-reserve banking,/* Economic function */  See talk
2012-10-17T11:00:59+00:00,518300129,518269345,1,FRB123,Talk:Fractional-reserve banking,/* Maturity Transformation vs Financial Intermediation */
2012-10-17T10:55:31+00:00,518299409,518280303,1,FRB123,Austrian school of economics,
2012-10-17T04:46:55+00:00,518260946,518102409,1,FRB123,Fractional-reserve banking,"/* How it works */  That's wrong.  The cites talk about ""what banks do"" - not what FRBanks do.  All banks act as FIs.  Only FRBs act as maturity transformers.  Must be removed until FRB ref can be found.  It's simply a lie that only FRBs perform FI"
2012-10-16T11:40:47+00:00,518104776,518082320,1,FRB123,Austrian school of economics,See talk page.  Please don't edit before this is resolved as Byefl has made much effort in simplifying the lede but keeping all content.
2012-10-16T11:39:21+00:00,518104564,518080462,1,FRB123,Talk:Austrian school of economics,/* Heterodox in the lead */
2012-10-16T06:11:57+00:00,518069647,518031926,1,FRB123,Talk:Austrian school of economics,/* Impossible/virtually impossible */
2012-10-15T23:59:15+00:00,518025097,517794760,1,FRB123,Austrian school of economics,
2012-10-15T23:06:45+00:00,518017204,517954516,1,FRB123,Talk:Austrian school of economics,/* Impossible/virtually impossible */
2012-10-15T00:12:48+00:00,517829762,517825084,1,FRB123,Talk:Full-reserve banking,/* Financial intermediation vs Maturity transformation */
2012-10-14T23:50:24+00:00,517826704,517746682,1,FRB123,Full-reserve banking,Let's leave it in until this gets sorted.  MT would definitely be LIMITED by Full RB and it's the only point against it so it needs to be in here for balance.
2012-10-14T23:38:15+00:00,517825084,517735711,1,FRB123,Talk:Full-reserve banking,/* Financial intermediation vs Maturity transformation */
2012-10-14T22:34:04+00:00,517816434,515725777,1,FRB123,Talk:Fractional-reserve banking,/* Commodity money */
2012-10-14T22:29:25+00:00,517815766,517815687,1,FRB123,Fractional-reserve banking,/* How it works */
2012-10-14T22:28:48+00:00,517815687,517781605,1,FRB123,Fractional-reserve banking,"/* How it works */   You don't get it,  The financial intermediary point is irrelevant to this page.  There may be ""good"" cite for banks being prosecuted for LIBOR violations, but that would also need to be deleted from THIS page."
2012-10-14T10:45:06+00:00,517718225,517711574,1,FRB123,Austrian school of economics,
2012-10-14T09:45:06+00:00,517711574,517571889,1,FRB123,Austrian school of economics,austrian needs to be explained in first paragraph
2012-10-14T08:25:32+00:00,517703264,517238986,1,FRB123,Fractional-reserve banking,"/* How it works */ maturity transformation, not financial intermediation"
2012-10-14T03:26:58+00:00,517673239,517673172,1,FRB123,Murray Rothbard,
2012-10-14T03:26:20+00:00,517673172,517398566,1,FRB123,Murray Rothbard,typo
2012-10-13T09:56:09+00:00,517548005,517502425,1,FRB123,Talk:Austrian school of economics,/* Recent FRB edit */
2012-10-12T20:59:11+00:00,517465954,517465051,1,FRB123,Austrian school of economics,/* Twentieth century */  I can't see a way of including this in this section.  It should be on Hayek's page.  It's completely out of proportion in this section and frankly irrelevant.  It takes up half the 20th century section and is an obscure footnote
2012-10-12T20:53:07+00:00,517465051,517457185,1,FRB123,Austrian school of economics,/* Methodology */
2012-10-12T20:00:01+00:00,517457185,517432230,1,FRB123,Austrian school of economics,
2012-10-12T11:49:21+00:00,517376372,517374413,1,FRB123,Austrian school of economics,
2012-10-12T11:46:57+00:00,517375913,517374830,1,FRB123,Talk:Full-reserve banking,/* Financial intermediation */
2012-10-12T11:44:22+00:00,517375420,517375359,1,FRB123,Full-reserve banking,/* The case against full reserve */
2012-10-12T11:44:04+00:00,517375359,517374589,1,FRB123,Full-reserve banking,/* The case for full reserve */
2012-10-12T11:40:22+00:00,517374830,510039086,1,FRB123,Talk:Full-reserve banking,/* Links to article by Rothbard on FRB */
2012-10-12T11:38:24+00:00,517374589,517342094,1,FRB123,Full-reserve banking,"No, it has to be completely recast as the cited material is irrelevant.  It doesn't talk about Full RB but intermediation which can still occur with Full RB.  Find references to criticism of Full RB"
2012-10-12T11:36:28+00:00,517374413,517371371,1,FRB123,Austrian school of economics,Let's forget the obsession with the unusual academic word heterodox.  It's still there in the lede for obsessives and now linked.
2012-10-12T11:05:46+00:00,517371371,517367759,1,FRB123,Austrian school of economics,Pointless and unnecessary changes.  Please see talk page - whole project has been to simplify lede.
2012-10-12T06:58:52+00:00,517336642,517336578,1,FRB123,Full-reserve banking,"Citations actually frowned up on in lede, explained in content below"
2012-10-12T06:58:05+00:00,517336578,517336424,1,FRB123,Full-reserve banking,Correct expression
2012-10-12T06:56:19+00:00,517336424,515410833,1,FRB123,Full-reserve banking,/* Criticisms */  Sorry this is completely wrong and needs redrafting to stay.  Financial intermediation still occurs with full reserve so the whole discussion is completely irrelevant.  MMMFs do the same thing and this can occur with time deposits.
2012-10-12T04:51:03+00:00,517325532,517323766,1,FRB123,Austrian school of economics,
2012-10-12T04:38:53+00:00,517324338,517323979,1,FRB123,Talk:Austrian school of economics,/* Impossible/virtually impossible */
2012-10-12T04:35:15+00:00,517323979,517323827,1,FRB123,Talk:Austrian school of economics,/* Impossible/virtually impossible */
2012-10-12T04:33:46+00:00,517323827,517222771,1,FRB123,Talk:Austrian school of economics,/* Praxeology/methodology */
2012-10-12T04:33:09+00:00,517323766,517282668,1,FRB123,Austrian school of economics,solved
2012-10-11T12:21:43+00:00,517186927,517186462,1,FRB123,Talk:Austrian school of economics,/* Impossible/virtually impossible */
2012-10-11T12:18:06+00:00,517186462,517186401,1,FRB123,Talk:Austrian school of economics,/* Impossible/virtually impossible */
2012-10-11T12:17:41+00:00,517186401,517172595,1,FRB123,Talk:Austrian school of economics,/* Impossible/virtually impossible */
2012-10-11T05:09:06+00:00,517138150,517120523,1,FRB123,Austrian school of economics,See talk page.  These are not Easter egg links.  Literal wording is not necessary for linking in all cases and we are trying to keep this simple.
2012-10-09T11:40:37+00:00,516804807,516798510,1,FRB123,Austrian school of economics,/* Etymology */
2012-10-09T10:32:20+00:00,516798510,516744414,1,FRB123,Austrian school of economics,/* Twentieth century */
2012-10-08T23:46:33+00:00,516728024,516727884,1,FRB123,Fractional-reserve banking,Confusing and unnecessary as it is linked.  Other changes were to clean up confusing expression.
2012-10-08T23:45:30+00:00,516727884,516727683,1,FRB123,Fractional-reserve banking,
2012-10-08T23:44:11+00:00,516727683,516727640,1,FRB123,Fractional-reserve banking,
2012-10-08T23:43:44+00:00,516727640,516727390,1,FRB123,Fractional-reserve banking,
2012-10-08T23:41:13+00:00,516727390,516727299,1,FRB123,Fractional-reserve banking,
2012-10-08T23:40:22+00:00,516727299,516722441,1,FRB123,Fractional-reserve banking,clearer
2012-10-08T23:04:08+00:00,516722441,516555853,1,FRB123,Fractional-reserve banking,/* General criticisms */  Plural
2012-10-08T00:42:35+00:00,516555853,516555733,1,FRB123,Fractional-reserve banking,/* Inflation */
2012-10-08T00:41:33+00:00,516555733,516555666,1,FRB123,Fractional-reserve banking,/* Inflation */
2012-10-08T00:40:55+00:00,516555666,516555481,1,FRB123,Fractional-reserve banking,Dispute now resolved?
2012-10-08T00:39:31+00:00,516555481,516471888,1,FRB123,Fractional-reserve banking,/* General criticisms */  Focus on main critics
2012-10-04T07:31:24+00:00,515920981,515920677,1,FRB123,Fractional-reserve banking,/* Counter-arguments in defense of fractional reserve banking */
2012-10-04T07:28:26+00:00,515920677,515920603,1,FRB123,Fractional-reserve banking,/* Counter-arguments in defense of fractional reserve banking */  That's all you can credibly say according to the refs
2012-10-04T07:27:37+00:00,515920603,515920305,1,FRB123,Fractional-reserve banking,/* Counter-arguments in defense of fractional reserve banking */  Not actually tried (there never was a sustained period of full RB with fiat money issuance) so it's speculative not historical
2012-10-04T07:24:42+00:00,515920305,515738848,1,FRB123,Fractional-reserve banking,/* Inflation */  Ref provided
2012-10-03T23:25:07+00:00,515875264,515509094,1,FRB123,Austrian school of economics,
2012-10-03T04:11:19+00:00,515738848,515738792,1,FRB123,Fractional-reserve banking,/* General criticisms */ typo
2012-10-03T04:10:38+00:00,515738792,515738663,1,FRB123,Fractional-reserve banking,/* General criticisms */
2012-10-03T04:09:09+00:00,515738663,515733191,1,FRB123,Fractional-reserve banking,/* General criticisms */ grammar
2012-10-02T07:17:53+00:00,515587189,515587149,1,FRB123,Fractional-reserve banking,/* Counter-arguments in favor of the practice */
2012-10-02T07:17:15+00:00,515587149,515587094,1,FRB123,Fractional-reserve banking,/* Counter-arguments */
2012-10-02T07:16:35+00:00,515587094,515587024,1,FRB123,Fractional-reserve banking,"/* Counter-arguments */   This is needed to explain the point of the paragraph - the belief that money supply growth causes ""stable"" inflation, never deflation."
2012-10-02T07:15:28+00:00,515587024,515586831,1,FRB123,Fractional-reserve banking,/* Counter-arguments */   Opposite must be true.
2012-10-02T07:13:00+00:00,515586831,515586794,1,FRB123,Fractional-reserve banking,/* General criticisms */
2012-10-02T07:12:34+00:00,515586794,515586684,1,FRB123,Fractional-reserve banking,/* General criticisms */  clean ups
2012-10-02T07:11:09+00:00,515586684,515586472,1,FRB123,Fractional-reserve banking,/* General criticisms */
2012-10-02T07:08:36+00:00,515586472,515561058,1,FRB123,Fractional-reserve banking,"/* General criticisms */  References, as requested"
2012-10-01T23:47:03+00:00,515544700,515419553,1,FRB123,Talk:Fractional-reserve banking,/* Commodity money */
2012-10-01T04:31:39+00:00,515416554,515362739,1,FRB123,Austrian school of economics,/* Twentieth century */
2012-10-01T04:06:46+00:00,515414379,515413459,1,FRB123,Criticism of fractional-reserve banking,/* General criticisms */
2012-10-01T03:57:02+00:00,515413459,515413275,1,FRB123,Criticism of fractional-reserve banking,"/* Counter-arguments */   Deflation may not occur if prices increase, so this Austrian argument is just a theory.  Money supply does not equal inflation."
2012-10-01T03:54:59+00:00,515413275,515413169,1,FRB123,Criticism of fractional-reserve banking,/* Counter-arguments */  more accurate and more objective
2012-10-01T03:53:51+00:00,515413169,515394735,1,FRB123,Criticism of fractional-reserve banking,/* Counter-arguments */  highly not used
2012-10-01T03:48:16+00:00,515412704,515412481,1,FRB123,Talk:Fractional-reserve banking,/* Commodity money */
2012-10-01T03:45:34+00:00,515412481,515412432,1,FRB123,Talk:Fractional-reserve banking,/* Commodity money */
2012-10-01T03:45:05+00:00,515412432,515412402,1,FRB123,Talk:Fractional-reserve banking,/* Commodity money */
2012-10-01T03:44:46+00:00,515412402,515412312,1,FRB123,Talk:Fractional-reserve banking,/* Commodity money */
2012-10-01T03:43:28+00:00,515412312,515401615,1,FRB123,Talk:Fractional-reserve banking,/* Commodity money */
2012-10-01T00:58:18+00:00,515395850,515334981,1,FRB123,Talk:Fractional-reserve banking,/* Commodity money */
2012-10-01T00:54:13+00:00,515395343,515381548,1,FRB123,Fractional-reserve banking,"/* Criticisms */  Simply repeat what's in Criticisms page - pointless.  Also misleading.  Krugman does not mention FRB once.  All talk is about gold, not FRB.  Commodity money and FRB are different concepts.  Discussion still irrelevant even if ref'd"
2012-10-01T00:49:13+00:00,515394735,515394602,1,FRB123,Criticism of fractional-reserve banking,/* Counter-arguments */  That is all the references actually say.  Again commodity money and FRB are DIFFERENT concepts
2012-10-01T00:48:02+00:00,515394602,515337020,1,FRB123,Criticism of fractional-reserve banking,/* Counter-arguments */   FRB is not the only way to increase money supply - money printing does as well - so sentence is simply wrong
2012-09-30T12:40:43+00:00,515301915,515301588,1,FRB123,Austrian school of economics,/* Twentieth century */
2012-09-30T12:37:32+00:00,515301588,515299417,1,FRB123,Austrian school of economics,/* Twentieth century */
2012-09-30T12:17:06+00:00,515299417,515023292,1,FRB123,Austrian school of economics,/* Assertions */
2012-09-30T10:43:19+00:00,515287427,515286705,1,FRB123,Talk:Fractional-reserve banking,/* Criticism of fractional reserve banking is a POVFORK and should be merged here */
2012-09-30T10:40:02+00:00,515286965,515232105,1,FRB123,Criticism of fractional-reserve banking,/* Counter-arguments */  Deleted as irrelevant to this page - see FRB talk page for repeat of same argument/issue.
2012-09-30T10:38:10+00:00,515286705,515242432,1,FRB123,Talk:Fractional-reserve banking,/* Commodity money */
2012-09-30T01:12:16+00:00,515236939,515236805,1,FRB123,Talk:Fractional-reserve banking,/* Commodity money */
2012-09-30T01:10:41+00:00,515236805,515236690,1,FRB123,Talk:Fractional-reserve banking,/* Commodity money */
2012-09-30T01:09:24+00:00,515236690,515082897,1,FRB123,Talk:Fractional-reserve banking,/* Criticism of fractional reserve banking is a POVFORK and should be merged here */
2012-09-30T01:03:55+00:00,515236181,515227230,1,FRB123,Fractional-reserve banking,/* Criticisms */   This is completely irrelevant to the topic of FRB as hard currencies systems all used FRB anyway.  Comment has to be about Full RB.
2012-09-28T06:10:46+00:00,514949685,514243301,1,FRB123,Talk:Austrian school of economics,/* Impossible/virtually impossible */
2012-09-28T01:17:43+00:00,514919133,514919079,1,FRB123,Fractional-reserve banking,/* Money supplies around the world */
2012-09-28T01:17:17+00:00,514919079,514919002,1,FRB123,Fractional-reserve banking,"/* Criticisms */  The source of the dispute has been removed so no need for the ""warning"" unless content is actually added."
2012-09-28T01:16:24+00:00,514919002,514779719,1,FRB123,Fractional-reserve banking,/* Criticisms */  Completely irrelevant to the topic.  FRB occurred with gold money too for centuries.  FRB debate and commodity money/fiat money debate are completely different topics.
2012-09-27T13:25:37+00:00,514800432,514800364,1,FRB123,Austrian school of economics,
2012-09-27T13:24:55+00:00,514800364,514800224,1,FRB123,Austrian school of economics,
2012-09-27T13:23:39+00:00,514800224,514799825,1,FRB123,Austrian school of economics,"cleaner, given Mises and Rothbard and others had slightly different versions"
2012-09-27T13:20:06+00:00,514799825,514799728,1,FRB123,Austrian school of economics,
2012-09-27T13:19:12+00:00,514799728,514799602,1,FRB123,Austrian school of economics,
2012-09-27T13:18:03+00:00,514799602,514468924,1,FRB123,Austrian school of economics,
2012-09-25T10:54:08+00:00,514468924,514468780,1,FRB123,Austrian school of economics,/* Inflation */
2012-09-25T10:52:44+00:00,514468780,514413878,1,FRB123,Austrian school of economics,/* Methodology */
2012-09-25T04:22:02+00:00,514438665,514328597,1,FRB123,Peter Schiff,"/* Reception */  easy solution.  some consider him a ""commentator"" now so let's just forget any descriptor"
2012-09-25T04:16:44+00:00,514438316,514287702,1,FRB123,Crazy Love (1987 film),/* Plot */
2012-09-24T23:56:32+00:00,514414010,513390784,1,FRB123,Austrian business cycle theory,/* Assertions */  flow.  very abrupt change of topic without link
2012-09-24T23:55:31+00:00,514413878,514275216,1,FRB123,Austrian school of economics,/* Assertions */
2012-09-24T09:16:35+00:00,514287702,514287599,1,FRB123,Crazy Love (1987 film),/* Plot */
2012-09-24T09:15:25+00:00,514287599,510682702,1,FRB123,Crazy Love (1987 film),/* Plot */
2012-09-23T10:42:34+00:00,514145466,512981594,1,FRB123,Central bank,more accurate
2012-09-23T10:03:01+00:00,514142155,514142082,1,FRB123,Austrian school of economics,
2012-09-23T10:02:08+00:00,514142082,514142014,1,FRB123,Austrian school of economics,
2012-09-23T10:01:05+00:00,514142014,514141962,1,FRB123,Austrian school of economics,
2012-09-23T10:00:21+00:00,514141962,514116249,1,FRB123,Austrian school of economics,expression
2012-09-23T04:18:38+00:00,514116249,513962410,1,FRB123,Austrian school of economics,/* Methodology */  Less awkward
2012-09-20T23:54:08+00:00,513796205,513731943,1,FRB123,Austrian school of economics,/* Methodology */ less awkward
2012-09-20T13:23:07+00:00,513708368,513698067,1,FRB123,Talk:Austrian school of economics,/* A quick question on ABCT */
2012-09-20T13:07:35+00:00,513705491,510263815,1,FRB123,Monetary reform,"/* Local barter, local currency */"
2012-09-20T12:54:52+00:00,513703126,513624095,1,FRB123,Austrian school of economics,/* Methodology */  Better reference
2012-09-20T12:23:34+00:00,513698067,513697691,1,FRB123,Talk:Austrian school of economics,/* A quick question on ABCT */
2012-09-20T12:21:10+00:00,513697691,513648571,1,FRB123,Talk:Austrian school of economics,/* Impossible/virtually impossible */
2012-09-20T06:14:07+00:00,513645773,513624833,1,FRB123,Talk:Austrian school of economics,/* A quick question on ABCT */
2012-09-20T01:54:11+00:00,513624833,513616434,1,FRB123,Talk:Austrian school of economics,/* Impossible/virtually impossible */
2012-09-20T01:48:22+00:00,513624263,507638813,1,FRB123,Embezzlement,/* See also */ needed because of Austrian arguments
2012-09-20T01:46:56+00:00,513624095,513623953,1,FRB123,Austrian school of economics,
2012-09-20T01:45:34+00:00,513623953,513617265,1,FRB123,Austrian school of economics,Undid revision 513617265 by [[Special:Contributions/71.191.88.198|71.191.88.198]] ([[User talk:71.191.88.198|talk]])  Sorry too confusing and ungrammatical.  Explained later anyway
2012-09-20T00:27:33+00:00,513616434,513522735,1,FRB123,Talk:Austrian school of economics,/* A quick question on ABCT */
2012-09-19T12:27:32+00:00,513522735,513516489,1,FRB123,Talk:Austrian school of economics,/* A quick question on ABCT */
2012-09-19T11:29:46+00:00,513516489,513516356,1,FRB123,Talk:Austrian school of economics,/* Impossible/virtually impossible */
2012-09-19T11:28:20+00:00,513516356,513515632,1,FRB123,Talk:Austrian school of economics,/* Impossible/virtually impossible */
2012-09-19T11:19:42+00:00,513515632,513507975,1,FRB123,Talk:Austrian school of economics,/* Impossible/virtually impossible */
2012-09-19T09:50:38+00:00,513507975,513507862,1,FRB123,Talk:Austrian school of economics,/* Impossible/virtually impossible */
2012-09-19T09:49:23+00:00,513507862,513507823,1,FRB123,Talk:Austrian school of economics,/* Impossible/virtually impossible */
2012-09-19T09:48:53+00:00,513507823,513507693,1,FRB123,Talk:Austrian school of economics,/* Impossible/virtually impossible */
2012-09-19T09:47:11+00:00,513507693,513499081,1,FRB123,Talk:Austrian school of economics,/* Impossible/virtually impossible */
2012-09-19T08:07:43+00:00,513499081,513498898,1,FRB123,Talk:Austrian school of economics,/* Impossible/virtually impossible */
2012-09-19T08:05:37+00:00,513498898,513497892,1,FRB123,Talk:Austrian school of economics,/* Impossible/virtually impossible */
2012-09-19T07:53:58+00:00,513497892,513494923,1,FRB123,Talk:Austrian school of economics,/* Impossible/virtually impossible */
2012-09-19T07:15:31+00:00,513494923,513494784,1,FRB123,Talk:Austrian school of economics,/* Impossible/virtually impossible */
2012-09-19T07:13:40+00:00,513494784,513493822,1,FRB123,Talk:Austrian school of economics,/* Impossible/virtually impossible */
2012-09-19T07:01:35+00:00,513493822,513492940,1,FRB123,Talk:Austrian school of economics,/* Impossible/virtually impossible */
2012-09-19T06:49:55+00:00,513492940,513492858,1,FRB123,Talk:Austrian school of economics,/* Impossible/virtually impossible */
2012-09-19T06:48:25+00:00,513492858,513492224,1,FRB123,Talk:Austrian school of economics,/* Impossible/virtually impossible */
2012-09-19T05:18:13+00:00,513486196,513485686,1,FRB123,Talk:Austrian school of economics,/* Impossible/virtually impossible */
2012-09-19T05:14:04+00:00,513485686,513485600,1,FRB123,Talk:Austrian school of economics,/* Impossible/virtually impossible */
2012-09-19T05:13:13+00:00,513485600,513479107,1,FRB123,Talk:Austrian school of economics,/* Impossible/virtually impossible */
2012-09-19T03:59:48+00:00,513479107,513463297,1,FRB123,Talk:Austrian school of economics,/* Impossible/virtually impossible */
2012-09-19T01:10:33+00:00,513463518,513456489,1,FRB123,Austrian school of economics,more precise
2012-09-19T01:08:13+00:00,513463297,513463199,1,FRB123,Talk:Austrian school of economics,/* Impossible/virtually impossible */
2012-09-19T01:07:03+00:00,513463199,513463095,1,FRB123,Talk:Austrian school of economics,/* Impossible/virtually impossible */
2012-09-19T01:05:45+00:00,513463095,513462762,1,FRB123,Talk:Austrian school of economics,/* Impossible/virtually impossible */
2012-09-19T01:02:05+00:00,513462762,513462456,1,FRB123,Talk:Austrian school of economics,/* Impossible/virtually impossible */
2012-09-19T00:58:38+00:00,513462456,513391797,1,FRB123,Talk:Austrian school of economics,/* Impossible/virtually impossible */
2012-09-19T00:05:16+00:00,513456489,513456335,1,FRB123,Austrian school of economics,"grammar.  talking about two things (testability and modeling) so has to be ""are"" not ""is"""
2012-09-19T00:04:05+00:00,513456335,513445936,1,FRB123,Austrian school of economics,Undid revision 513445936 by [[Special:Contributions/213.105.76.33|213.105.76.33]] ([[User talk:213.105.76.33|talk]])
2012-09-18T13:40:10+00:00,513371490,513371389,1,FRB123,Austrian school of economics,
2012-09-18T13:39:23+00:00,513371389,513371033,1,FRB123,Austrian school of economics,
2012-09-18T13:36:43+00:00,513371033,513370772,1,FRB123,Austrian school of economics,"Strictly speaking Rothbard considered it criminal embezzlement, not misrepn."
2012-09-18T13:34:49+00:00,513370772,513350054,1,FRB123,Austrian school of economics,link two sentences.
2012-09-18T11:13:06+00:00,513350054,513315239,1,FRB123,Austrian school of economics,/* Methodology */
2012-09-18T04:27:26+00:00,513315239,513315029,1,FRB123,Austrian school of economics,"more accurate, it relates to the recursiveness inherent in modeling"
2012-09-18T04:24:30+00:00,513315029,513314902,1,FRB123,Austrian school of economics,"Put ""special"" term in here.  For those who are desperate to see it."
2012-09-18T04:22:46+00:00,513314902,513310475,1,FRB123,Austrian school of economics,"I'm sorry we've spent weeks trying to simplify this and this amateurish repeat of the mistakes we've already cleaned up is not helping.  Obsessing about the word ""heterodox"" when a newbie doesn't understand it is pointless."
2012-09-18T00:52:01+00:00,513294517,513079193,1,FRB123,Austrian school of economics,/* Background */
2012-09-17T05:43:17+00:00,513079193,513021500,1,FRB123,Austrian school of economics,even simpler
2012-09-17T00:50:09+00:00,513021500,513021455,1,FRB123,Austrian school of economics,typo
2012-09-17T00:49:56+00:00,513021455,512990814,1,FRB123,Austrian school of economics,typo
2012-09-16T14:48:06+00:00,512905479,512901221,1,FRB123,Talk:Austrian school of economics,too messy to explain.
2012-09-16T14:23:43+00:00,512901221,512901109,1,FRB123,Talk:Austrian school of economics,/* A quick question on ABCT */
2012-09-16T14:23:06+00:00,512901109,512850950,1,FRB123,Talk:Austrian school of economics,/* A quick question on ABCT */
2012-09-16T14:05:04+00:00,512898062,512884671,1,FRB123,Austrian school of economics,/* Twentieth century */  No need for quotation marks if indented.
2012-09-16T10:02:53+00:00,512858891,512858552,1,FRB123,Austrian school of economics,/* Methodology */
2012-09-16T10:00:53+00:00,512858552,512851123,1,FRB123,Austrian school of economics,"You don't understand the meaning of wikilinking.  People don't understand ""heterodox"" so need to understand that term (they may not click on ""outside..."")"
2012-09-16T03:39:37+00:00,512805786,512779938,1,FRB123,Austrian school of economics,"grammar.  ""which"" doesn't work.  If you can replace positing with something better, feel free."
2012-09-16T00:56:47+00:00,512779938,512723103,1,FRB123,Austrian school of economics,
2012-09-14T02:32:15+00:00,512302871,512293144,1,FRB123,Talk:Austrian school of economics,/* A quick question on ABCT */
2012-09-14T01:32:01+00:00,512292947,512291608,1,FRB123,Talk:Austrian school of economics,/* A quick question on ABCT */
2012-09-14T01:23:47+00:00,512291608,512291437,1,FRB123,Talk:Austrian school of economics,/* A quick question on ABCT */
2012-09-14T01:22:48+00:00,512291437,512289845,1,FRB123,Talk:Austrian school of economics,/* A quick question on ABCT */
2012-09-14T01:13:00+00:00,512289845,512289481,1,FRB123,Talk:Austrian school of economics,/* A quick question on ABCT */
2012-09-14T01:10:58+00:00,512289481,512289314,1,FRB123,Talk:Austrian school of economics,/* A quick question on ABCT */
2012-09-14T01:09:57+00:00,512289314,512289169,1,FRB123,Talk:Austrian school of economics,/* A quick question on ABCT */
2012-09-14T01:02:28+00:00,512288094,512286533,1,FRB123,Talk:Austrian school of economics,/* A quick question on ABCT */
2012-09-14T00:35:50+00:00,512283473,512283356,1,FRB123,Talk:Austrian school of economics,/* A quick question on ABCT */
2012-09-14T00:35:05+00:00,512283356,512280151,1,FRB123,Talk:Austrian school of economics,/* A quick question on ABCT */
2012-09-14T00:18:46+00:00,512280720,512280369,1,FRB123,Austrian school of economics,simplify - if it's next best it's not chosen - obviously.
2012-09-14T00:16:46+00:00,512280369,512207261,1,FRB123,Austrian school of economics,"Don't try to pile on too much stuff in one sentence.  It kills the reader's ability to understand.  Wikilinked anyway, so why push so much info onto one sentence??"
2012-09-13T07:22:04+00:00,512136891,511870609,1,FRB123,Austrian business cycle theory,Pointless para which repeats lower down
2012-09-13T04:28:30+00:00,512123185,512123157,1,FRB123,Talk:Austrian school of economics,/* Hahn not Austrian?? */
2012-09-13T04:28:15+00:00,512123157,512122083,1,FRB123,Talk:Austrian school of economics,/* Criticisms of time preference */
2012-09-13T04:11:48+00:00,512121303,512121191,1,FRB123,Austrian school of economics,/* Business cycle theory */
2012-09-13T04:10:49+00:00,512121191,512120611,1,FRB123,Austrian school of economics,/* Business cycle theory */  Ref doesn't work.  Someone has to clean up before reinserting
2012-09-13T04:04:57+00:00,512120611,512120336,1,FRB123,Austrian school of economics,it goes in waves so his point is that it is currently a minority position.
2012-09-13T04:02:23+00:00,512120336,512120025,1,FRB123,Austrian school of economics,/* Background */  Completely irrelevant even to the criticism of the theory!  why was this even put in here??
2012-09-13T03:59:43+00:00,512120025,512112446,1,FRB123,Austrian school of economics,"/* Methodology */  I'm sorry Hahn was in the Austrian tradition, and the quote perfectly captures why.  Schiff is not an economist either and is ref'd as is Ron Paul.  I've eliminated the Keynesian stuff."
2012-09-13T01:27:51+00:00,512103436,512099703,1,FRB123,Talk:Austrian school of economics,/* Anderson article is insufficient */
2012-09-13T01:24:43+00:00,512103043,512064979,1,FRB123,Austrian school of economics,/* Methodology */  Better explanation with ref.
2012-09-12T05:18:49+00:00,511965592,511964065,1,FRB123,Austrian school of economics,See talk page.  It's worth putting in.  Ref Supplied
2012-09-12T04:58:21+00:00,511964065,511963795,1,FRB123,Austrian school of economics,
2012-09-12T04:54:27+00:00,511963795,511962438,1,FRB123,Austrian school of economics,
2012-09-12T04:38:19+00:00,511962438,511959759,1,FRB123,Austrian school of economics,/* Background */ flow only.  previous version was like a robot repeating itself.
2012-09-11T13:20:52+00:00,511846534,511831485,1,FRB123,Austrian school of economics,link
2012-09-11T06:58:29+00:00,511810387,511801269,1,FRB123,Austrian school of economics,/* Background */
2012-09-11T05:02:44+00:00,511801269,511801199,1,FRB123,Austrian school of economics,grammar
2012-09-11T05:01:59+00:00,511801199,511799943,1,FRB123,Austrian school of economics,"Insanely confusing to a newbie.  Simplified.  I don't even know what that quote means myself, and I've had 10 years of study on this.  Quote is out of context,."
2012-09-11T04:16:36+00:00,511796980,511796803,1,FRB123,Austrian school of economics,/* Background */
2012-09-11T04:14:45+00:00,511796803,511796723,1,FRB123,Austrian school of economics,/* Business cycle theory */
2012-09-11T04:13:39+00:00,511796723,511796588,1,FRB123,Austrian school of economics,"/* Business cycle theory */  Bankers are bailed out so no reason not to make ""unprofitable"" investments."
2012-09-11T04:12:21+00:00,511796588,511796502,1,FRB123,Austrian school of economics,/* Background */   Better positioned
2012-09-11T04:11:26+00:00,511796502,511787856,1,FRB123,Austrian school of economics,/* Background */  Redundant.  This issue is addressed later in the very same para.
2012-09-11T02:40:51+00:00,511787856,511787697,1,FRB123,Austrian school of economics,
2012-09-11T02:39:28+00:00,511787697,511787516,1,FRB123,Austrian school of economics,
2012-09-11T02:09:23+00:00,511784608,511732424,1,FRB123,Austrian school of economics,"random italicization unnecessary, confusing."
2012-09-10T11:17:58+00:00,511674166,511669599,1,FRB123,Talk:Austrian school of economics,/* Comment on recent edit by FRB123 */
2012-09-10T11:15:40+00:00,511673981,511642927,1,FRB123,Austrian school of economics,"grammar - and ""way in which"" also means volume so let's cut this down slightly"
2012-09-10T06:44:58+00:00,511650252,511650218,1,FRB123,Credit theory of money,
2012-09-10T06:44:39+00:00,511650218,511552519,1,FRB123,Credit theory of money,
2012-09-10T06:42:54+00:00,511650084,511631730,1,FRB123,Talk:Austrian school of economics,/* Comment on recent edit by FRB123 */
2012-09-10T05:04:51+00:00,511642927,511642833,1,FRB123,Austrian school of economics,
2012-09-10T05:03:53+00:00,511642833,511642783,1,FRB123,Austrian school of economics,
2012-09-10T05:03:21+00:00,511642783,511642676,1,FRB123,Austrian school of economics,
2012-09-10T05:02:15+00:00,511642676,511642629,1,FRB123,Austrian school of economics,
2012-09-10T05:01:49+00:00,511642629,511641476,1,FRB123,Austrian school of economics,
2012-09-10T04:49:27+00:00,511641476,511641355,1,FRB123,Austrian school of economics,"""logically"" really elegant because it alludes to praxeology and deductive reasoning.  I hope you agree."
2012-09-10T04:48:06+00:00,511641355,511632054,1,FRB123,Austrian school of economics,effectively unnecessary
2012-09-10T02:13:46+00:00,511626753,511382089,1,FRB123,Friedrich Hayek,
2012-09-10T01:46:24+00:00,511624102,511623820,1,FRB123,Austrian school of economics,/* Inflation */ Redundancy
2012-09-10T01:43:55+00:00,511623820,511622175,1,FRB123,Austrian school of economics,"grammar, all money is now credit so ""money supply"" really is credit in modern economy.  Simplify"
2012-09-10T01:27:38+00:00,511622175,511621004,1,FRB123,Austrian school of economics,"grammar, redundancy"
2012-09-10T01:13:22+00:00,511620634,511620503,1,FRB123,Austrian school of economics,grammar
2012-09-10T01:11:54+00:00,511620503,511620060,1,FRB123,Austrian school of economics,grammar
2012-09-10T01:05:31+00:00,511619812,511619729,1,FRB123,Austrian school of economics,attempting?  redundant
2012-09-10T01:04:44+00:00,511619729,511619657,1,FRB123,Austrian school of economics,Your subjective belief that it doesn't have a common definition is OR
2012-09-10T01:03:59+00:00,511619657,511619539,1,FRB123,Austrian school of economics,"Sorry, ridiculous that you can put in a statement simply because you can't find a definition yourself. Your statement itself needs a reference which you can't provide.  Read this http://mises.org/etexts/austrian.asp."
2012-09-10T00:50:27+00:00,511618280,511618080,1,FRB123,Austrian school of economics,
2012-09-10T00:48:36+00:00,511618080,511617825,1,FRB123,Austrian school of economics,Find a reference that says AS has no definition.  Find one before putting in the statement.
2012-09-10T00:46:13+00:00,511617825,511615941,1,FRB123,Austrian school of economics,simplify
2012-09-10T00:05:06+00:00,511613560,511613362,1,FRB123,Austrian school of economics,
2012-09-10T00:03:20+00:00,511613362,511613072,1,FRB123,Austrian school of economics,No Austrian supports central banking.  None.
2012-09-10T00:00:48+00:00,511613072,511612980,1,FRB123,Austrian school of economics,
2012-09-10T00:00:05+00:00,511612980,511612833,1,FRB123,Austrian school of economics,"Central banking makes this impossible.  It's the theory if there was a free market, so statement is clearly incorrect in the real world."
2012-09-09T23:58:42+00:00,511612833,511612635,1,FRB123,Austrian school of economics,Too much in the intro.  Don't weigh this down with eveything but the kitchen sink.
2012-09-09T23:56:41+00:00,511612635,511612434,1,FRB123,Austrian school of economics,"Simpler, clearer (and more accurate).  AS has nothing to say about ""social phenomena"" generally.  That is simply an incorrect and confusing statement, unsupported by any reference."
2012-09-09T23:54:51+00:00,511612434,511611613,1,FRB123,Austrian school of economics,
2012-09-09T23:47:21+00:00,511611613,511611491,1,FRB123,Austrian school of economics,
2012-09-09T23:46:02+00:00,511611491,511611373,1,FRB123,Austrian school of economics,"simpler, clearer"
2012-09-09T23:44:46+00:00,511611373,511611274,1,FRB123,Austrian school of economics,
2012-09-09T23:43:49+00:00,511611274,511585292,1,FRB123,Austrian school of economics,
2012-09-09T23:41:01+00:00,511610992,511572131,1,FRB123,Talk:Austrian school of economics,/* Definitional issues? */
2008-09-08T05:42:10+00:00,237013169,237012579,1,FreemasonsUnite!,User talk:Satori Son,/* Thanks on the unblock */
2010-07-31T13:55:11+00:00,376425075,376424818,1,Gaynomics,Systemic risk,/* Regulation */
2010-07-31T13:52:39+00:00,376424818,376424424,1,Gaynomics,Systemic risk,/* Regulation */ clean up
2010-07-31T13:48:27+00:00,376424424,376424167,1,Gaynomics,Systemic risk,Ref
2010-07-31T13:45:48+00:00,376424167,374472075,1,Gaynomics,Systemic risk,/* Regulation */  Clean up expression
2010-07-31T13:34:33+00:00,376423019,376091060,1,Gaynomics,Affirmative action,/* South Africa */  Remove dead link
2010-07-31T13:33:41+00:00,376422923,0,1,Gaynomics,User:Gaynomics,[[WP:AES|←]]Created page with '[http://www.youtube.com/watch?v=zM23TZxzOw8 Gaynomics cannot replicate itself and is therefore unsustainable.]  [http://www.google.com.au/url?sa=t&source=web&cd=1&v...'
2010-05-27T09:00:07+00:00,364451910,364445880,1,GodSaysNoMore,Criticism of fractional-reserve banking,
2010-05-27T08:57:49+00:00,364451718,364445737,1,GodSaysNoMore,Austrian business cycle theory,"Who says I don't respect private property???  Check out my page for an explanation, counterfeit man."
2010-05-27T05:41:07+00:00,364434835,364357019,1,GodSaysNoMore,Criticism of fractional-reserve banking,
2010-05-27T05:38:30+00:00,364434564,363585848,1,GodSaysNoMore,Austrian business cycle theory,"something is wrong with this system if I can get around the rules so easily.  i respectfully suggest we reach some kind of resolution on this edit ""tiff"""
2010-05-26T07:57:58+00:00,364261965,364261515,1,GodSaysNoMore,Moral hazard,/* In finance */
2010-05-26T07:52:03+00:00,364261515,364260592,1,GodSaysNoMore,Moral hazard,/* In finance */
2010-05-26T07:41:43+00:00,364260592,364260386,1,GodSaysNoMore,Moral hazard,
2010-05-26T07:39:24+00:00,364260386,364260266,1,GodSaysNoMore,Moral hazard,/* In finance */
2010-05-26T07:38:05+00:00,364260266,364259975,1,GodSaysNoMore,Moral hazard,/* In finance */
2010-05-26T07:34:24+00:00,364259975,364259922,1,GodSaysNoMore,Moral hazard,/* In finance */
2010-05-26T07:33:41+00:00,364259922,364222462,1,GodSaysNoMore,Moral hazard,clean up
2010-05-23T05:07:52+00:00,363668254,363668214,1,GodSaysNoMore,User talk:GodSaysNoMore,[[WP:AES|←]]Blanked the page
2010-05-23T05:07:34+00:00,363668214,0,1,GodSaysNoMore,User talk:GodSaysNoMore,[[WP:AES|←]]Created page with '10 edits needed to become an established user...hmmmm...'
2012-03-21T10:40:23+00:00,483088290,483087177,1,Goldman'sMuppets,Criticism of fractional-reserve banking,/* See also */
2012-03-21T10:33:54+00:00,483087177,483031554,1,Goldman'sMuppets,Criticism of fractional-reserve banking,minor cleanups
2009-04-26T05:00:06+00:00,286173512,286173287,1,GoldToTheMoonAlice,Murray Rothbard,
2009-04-26T04:57:52+00:00,286173287,286154933,1,GoldToTheMoonAlice,Murray Rothbard,
2009-04-26T04:53:48+00:00,286172938,285705212,1,GoldToTheMoonAlice,User talk:Carolmooredc,/* rothbard */
2009-04-26T03:00:45+00:00,286159766,286159177,1,GoldToTheMoonAlice,User talk:GoldToTheMoonAlice,
2009-04-26T02:54:03+00:00,286159046,0,1,GoldToTheMoonAlice,User:GoldToTheMoonAlice,[[WP:AES|←]]Created page with 'Gold to the moon because too many want cheese.  Obammmy....give me....cheeeeesssssseee pleeeeaaasssseeeee!'
2009-04-26T02:27:54+00:00,286155730,286017002,1,GoldToTheMoonAlice,Full-reserve banking,For the last time it's grammAR.  Not grammER.  Idiot.
2011-06-24T11:01:21+00:00,435958604,435958354,1,GreekPapSmear,User:GreekPapSmear,
2011-06-24T10:58:52+00:00,435958354,0,1,GreekPapSmear,User:GreekPapSmear,[[WP:AES|←]]Created page with 'Pap was 'employee of the decade' of which bank?'
2011-06-24T10:56:45+00:00,435958158,435874272,1,GreekPapSmear,Quantitative easing,
2010-06-28T10:13:15+00:00,370572542,370284599,1,GripThePeopleTooTightAndYouKillThem,User talk:Satori Son,/* Karmaisking */
2010-06-28T10:08:26+00:00,370571930,0,1,GripThePeopleTooTightAndYouKillThem,User:GripThePeopleTooTightAndYouKillThem,
2010-06-28T10:07:30+00:00,370571817,369635160,1,GripThePeopleTooTightAndYouKillThem,Affirmative action in the United States,
2010-06-28T10:01:59+00:00,370571095,370570839,1,GripThePeopleTooTightAndYouKillThem,User talk:BigK HeX,/* Illuminati Eye? */
2010-06-28T10:00:09+00:00,370570839,370570643,1,GripThePeopleTooTightAndYouKillThem,User talk:BigK HeX,/* Illuminati Eye? */  typo (I'm such a perfectionist...)
2010-06-28T09:58:44+00:00,370570643,370447614,1,GripThePeopleTooTightAndYouKillThem,User talk:BigK HeX,/* Illuminati Eye? */
2010-06-01T12:22:46+00:00,365417743,0,1,GypsyBanksters,User:GypsyBanksters,"[[WP:AES|←]]Created page with 'Hi.  I'm new to WP, but I'm a mainstream academic Keynesian economist, and I'm also bisexual - primarily gay - just like Keynes was.  I like to ensure WP stays as K...'"
2010-06-01T12:16:23+00:00,365416882,365254743,1,GypsyBanksters,Talk:Peter Schiff,/* RfC comments from Uninvolved Editors */
2010-06-01T12:13:45+00:00,365416506,365242797,1,GypsyBanksters,Peter Schiff,how about this as a compromise....he's often said his course on macro was useless and he learnt econ from his dad and reading his own books...
2010-06-01T12:09:17+00:00,365415951,365415360,1,GypsyBanksters,Austrian school of economics,Thanks for your earlier revert Lawrence.  I really appreciate your attention in ensuring trolls are kept off WP.  And I really admire your academic publications.  Thanks again.
2010-06-01T12:06:17+00:00,365415628,365414357,1,GypsyBanksters,Austrian business cycle theory,"revert edit of sockpuppet. please stay away, you're fooling no one with you childish behavior.  this is a serious project."
2010-06-01T12:03:53+00:00,365415360,365413874,1,GypsyBanksters,Austrian school of economics,"revert edit of sockpuppet. please stay away, you're fooling no one with you childish behavior.  this is a serious project."
2010-06-01T12:02:24+00:00,365415183,365414750,1,GypsyBanksters,Moral hazard,"revert edit of sockpuppet. please stay away, you're fooling no one with you childish behavior.  this is a serious project."
2009-02-25T05:23:50+00:00,273129856,273129767,1,HairyBarbarianSellsDebtAndDrugs,Fractional-reserve banking,[[WP:UNDO|Undid]] revision 273129767 by [[Special:Contributions/HairyBarbarianSellsDebtAndDrugs|HairyBarbarianSellsDebtAndDrugs]] ([[User talk:HairyBarbarianSellsDebtAndDrugs|talk]])
2009-02-25T05:23:18+00:00,273129767,273083952,1,HairyBarbarianSellsDebtAndDrugs,Fractional-reserve banking,/* Criticism */  Link no longer works
2010-08-23T13:52:10+00:00,380501850,380501455,1,HangHypocrites,User talk:Darkstar1st,/* Use their arugments against them */
2010-08-23T13:49:25+00:00,380501455,380500792,1,HangHypocrites,User talk:Darkstar1st,/* Use their arugments against them */
2010-08-23T13:44:40+00:00,380500792,380500187,1,HangHypocrites,User talk:Darkstar1st,/* Use their arugments against them */
2010-08-23T13:40:19+00:00,380500187,380500069,1,HangHypocrites,User talk:Darkstar1st,/* Use their arugments against them */
2010-08-23T13:39:27+00:00,380500069,380499954,1,HangHypocrites,User talk:Darkstar1st,/* Use their arugments against them */ fix link.  Please remember to delete asap
2010-08-23T13:38:33+00:00,380499954,380379656,1,HangHypocrites,User talk:Darkstar1st,
2009-02-23T10:18:53+00:00,272692071,272691682,1,"Hell,FirstLeftDownSocialistAlly",Fractional-reserve banking,OK.  That's been your decision.  Live with the karma.
2009-02-23T10:12:04+00:00,272691393,272690948,1,"Hell,FirstLeftDownSocialistAlly",Fractional-reserve banking,See talk page.  E-Gold and other gold-based fullRB services would arguably qualify.  I know there are problems with these JQ but they did exist and do exist...
2009-02-23T10:07:24+00:00,272690948,272606680,1,"Hell,FirstLeftDownSocialistAlly",Fractional-reserve banking,"A number of edits were unnecessary, involved deletions or were misleading.  Please edit from this version.  Thanks."
2009-02-23T10:02:40+00:00,272690485,272655552,1,"Hell,FirstLeftDownSocialistAlly","User:Hell,FirstLeftDownSocialistAlly",[[WP:AES|←]]Blanked the page
2009-02-23T10:01:43+00:00,272690382,272649093,1,"Hell,FirstLeftDownSocialistAlly",Meltdown (Woods book),"Minor correction of terminology.  Please never use ""irrational"" to describe ""malinvestments""."
2009-02-23T09:14:43+00:00,272685522,272425647,1,"Hell,FirstLeftDownSocialistAlly",Austrian business cycle theory,"Substance, substance."
2009-02-23T04:53:32+00:00,272655552,0,1,"Hell,FirstLeftDownSocialistAlly","User:Hell,FirstLeftDownSocialistAlly","[[WP:AES|←]]Created page with 'Straight down bank nationalization, turn left at moral hazard, turn right at bankster bailouts, right again at bondholder guarantees, left at starvaton corner, left…'"
2021-09-09T14:40:59+00:00,1043327896,1043326064,1,HereComesTheCull,Talk:Fractional-reserve banking,"/* Section: ""Criticisms of textbook descriptions of the monetary system"" */"
2021-09-09T14:28:52+00:00,1043326064,1043326039,1,HereComesTheCull,Talk:Fractional-reserve banking,"/* Section: ""Criticisms of textbook descriptions of the monetary system"" */"
2021-09-09T14:28:36+00:00,1043326039,1043325993,1,HereComesTheCull,Talk:Fractional-reserve banking,"/* Section: ""Criticisms of textbook descriptions of the monetary system"" */"
2021-09-09T14:28:17+00:00,1043325993,1043325866,1,HereComesTheCull,Talk:Fractional-reserve banking,"/* Section: ""Criticisms of textbook descriptions of the monetary system"" */"
2021-09-09T14:27:08+00:00,1043325866,1043325551,1,HereComesTheCull,Talk:Fractional-reserve banking,"/* Section: ""Criticisms of textbook descriptions of the monetary system"" */"
2021-09-09T14:24:58+00:00,1043325551,1043286948,1,HereComesTheCull,Talk:Fractional-reserve banking,"/* Section: ""Criticisms of textbook descriptions of the monetary system"" */"
2021-09-06T12:59:06+00:00,1042726992,1042726954,1,HereComesTheCull,Fractional-reserve banking,/* Criticisms */
2021-09-06T12:58:44+00:00,1042726954,1040547097,1,HereComesTheCull,Fractional-reserve banking,/* Criticisms */ Minor update for 21st century
2021-09-06T12:52:50+00:00,1042726241,0,1,HereComesTheCull,User:HereComesTheCull,[[WP:AES|←]]Created page with 'Here comes the cull do do do doooo  Here comes the cull   And I said...  It's alright...'
2015-10-22T06:25:24+00:00,686927532,0,1,HiFromIcelandWeRecoveredByJailingBankers,User talk:HiFromIcelandWeRecoveredByJailingBankers,[[WP:AES|←]]Created page with 'Just starting out.  Trying my best to start modestly with humility and love.'
2015-10-22T06:24:46+00:00,686927503,0,1,HiFromIcelandWeRecoveredByJailingBankers,User:HiFromIcelandWeRecoveredByJailingBankers,[[WP:AES|←]]Created page with 'new naive and happy'
2015-10-22T06:24:25+00:00,686927478,683566853,1,HiFromIcelandWeRecoveredByJailingBankers,Austrian business cycle theory,"corrected errors of expression and repetition, improved readability and clarity"
2010-11-05T04:13:56+00:00,394923332,394478361,1,HitByAMakTruck,Milton Friedman,/* Austrian school criticisms */
2010-09-30T10:51:08+00:00,387892511,387513983,1,IlliterateSocialistZealot,User talk:IlliterateSocialistZealot,
2010-09-28T10:33:55+00:00,387503170,0,1,IlliterateSocialistZealot,User:IlliterateSocialistZealot,[[WP:AES|←]]Created page with 'Parasites have the oldest cultures because they don't need to evolve.  They live off the evolution of others.   Like cockroaches.  And herpes.    And bankers.'
2010-09-28T10:31:57+00:00,387502961,387499704,1,IlliterateSocialistZealot,Talk:Libertarianism,/* Badly written lead */
2011-01-23T00:14:27+00:00,409459183,409459112,1,IMFDoesIrelandGreekStyle,User:IMFDoesIrelandGreekStyle,
2011-01-23T00:14:01+00:00,409459112,0,1,IMFDoesIrelandGreekStyle,User:IMFDoesIrelandGreekStyle,[[WP:AES|←]]Created page with 'Bruseels does Ireland Greek-sytle  Ireland bends over to Brussels  Banks Give Ireland Greek  You get the picture...'
2011-01-23T00:12:35+00:00,409458906,409365681,1,IMFDoesIrelandGreekStyle,Malinvestment,
2009-01-13T08:09:15+00:00,263767160,0,1,InnocentUntilMassacred,User:InnocentUntilMassacred,"[[WP:AES|←]]Created page with 'Hi, I'm a sheep waiting to be shorn.  I hope you enjoy my edits.'"
2009-01-13T08:08:40+00:00,263767098,263767033,1,InnocentUntilMassacred,Monetary reform,False positive.
2009-01-13T08:07:52+00:00,263767027,263593902,1,InnocentUntilMassacred,Monetary reform,
2010-09-14T14:26:07+00:00,384792726,384766741,1,InTheHole666,Talk:Criticism of fractional-reserve banking,You know why
2010-09-14T11:09:42+00:00,384764535,384311768,1,InTheHole666,Talk:Criticism of fractional-reserve banking,Why
2010-09-14T11:08:21+00:00,384764390,384764292,1,InTheHole666,User:InTheHole666,f.cking typos....
2010-09-14T11:07:36+00:00,384764292,384763162,1,InTheHole666,User:InTheHole666,
2010-09-14T10:58:03+00:00,384763162,0,1,InTheHole666,User:InTheHole666,[[WP:AES|←]]Created page with '[http://www.youtube.com/watch?v=qtq65wEgzBg&feature=related They're well and truly out of the hole on roaming WP]'
2010-09-14T10:56:44+00:00,384762996,384761865,1,InTheHole666,User talk:Darkstar1st,Not in the eyes of God or the Natural Law
2008-10-02T10:34:56+00:00,242466645,242464928,1,InTheLongRunThereIsNoShortCut,User talk:Gregalton,Where's the frightened delete button?????  Ohhh...so you're going leave that one in.  Have you no shame?
2008-10-02T10:21:04+00:00,242464928,242462906,1,InTheLongRunThereIsNoShortCut,User talk:Gregalton,/* I unreservedly apologize */
2008-10-02T09:45:55+00:00,242460896,242460741,1,InTheLongRunThereIsNoShortCut,User talk:Gregalton,/* I unreservedly apologize */
2008-10-02T09:44:42+00:00,242460741,242411716,1,InTheLongRunThereIsNoShortCut,User talk:Gregalton,/* I unreservedly apologize */
2008-10-02T09:39:20+00:00,242460050,242414052,1,InTheLongRunThereIsNoShortCut,Criticism of fractional-reserve banking,
2008-10-02T09:21:52+00:00,242458308,242458104,1,InTheLongRunThereIsNoShortCut,Fractional-reserve banking,/* Association with the business cycle */
2008-10-02T09:19:33+00:00,242458104,242457697,1,InTheLongRunThereIsNoShortCut,Fractional-reserve banking,/* Association with the business cycle */
2008-10-02T09:16:29+00:00,242457697,242457578,1,InTheLongRunThereIsNoShortCut,Fractional-reserve banking,/* Association with the business cycle */
2008-10-02T09:15:25+00:00,242457578,242348763,1,InTheLongRunThereIsNoShortCut,Fractional-reserve banking,"/* Exacerbation of the business cycle */ Typos, added supporting references."
2020-03-06T14:16:20+00:00,944224938,944224540,1,Jamie'sFakeDiamond,Monetary reform,/* Alternative money systems */ Revert suspected evil sockpuppet edit to last edit by brave Hindu Ravensfire
2020-03-06T11:48:02+00:00,944209854,944203668,1,Jamie'sFakeDiamond,User:Jamie'sFakeDiamond,
2020-03-06T10:37:39+00:00,944203668,0,1,Jamie'sFakeDiamond,User:Jamie'sFakeDiamond,[[WP:AES|←]]Created page with 'Coyote meet cliff.  Hammer meet screw.  JP Morgan meet caronavirus and a repo crisis.'
2020-03-06T10:36:18+00:00,944203552,942891704,1,Jamie'sFakeDiamond,Monetary reform,
2009-03-10T10:53:47+00:00,276243221,276166680,1,JekyllClubBoreMrHyde,User talk:Cameron Scott,
2009-03-09T08:26:01+00:00,275993719,0,1,JekyllClubBoreMrHyde,User:JekyllClubBoreMrHyde,"[[WP:AES|←]]Created page with 'The Truth is There Never Was a Dr. Jekyll.  He was always the hairy, barbaric Mr. Hyde.    And now He's Coming to Eat Us All!   Mr Hyde, Mr Banker, borne on Jekyll …'"
2010-08-17T13:49:54+00:00,379400157,379399269,1,Jessica'sGems,Wikipedia:Sockpuppet investigations/Karmaisking,/*  Comments by accused parties  &nbsp;&nbsp;   */
2010-08-17T13:43:19+00:00,379399269,379399128,1,Jessica'sGems,Wikipedia:Sockpuppet investigations/Karmaisking,/*  Comments by accused parties  &nbsp;&nbsp;   */
2010-08-17T13:42:14+00:00,379399128,379398594,1,Jessica'sGems,Wikipedia:Sockpuppet investigations/Karmaisking,/*  Comments by accused parties  &nbsp;&nbsp;   */
2010-08-17T13:38:23+00:00,379398594,379398385,1,Jessica'sGems,Wikipedia:Sockpuppet investigations/Karmaisking,/*  Comments by accused parties  &nbsp;&nbsp;   */
2010-08-17T13:36:59+00:00,379398385,379397537,1,Jessica'sGems,Wikipedia:Sockpuppet investigations/Karmaisking,/*  Comments by accused parties  &nbsp;&nbsp;   */
2010-08-17T13:30:54+00:00,379397537,379397218,1,Jessica'sGems,Wikipedia:Sockpuppet investigations/Karmaisking,/*  Evidence submitted by BigK HeX   */
2010-08-17T10:48:19+00:00,379379097,379378837,1,Jessica'sGems,Wikipedia:Sockpuppet investigations/Karmaisking,/*  Comments by accused parties  &nbsp;&nbsp;   */ Please look at the patterns of behavior here. BKH has a clear anti-Libertarian COI and blarinigly obvious POV.  Have Daleks taken over WP too?
2010-08-17T10:45:45+00:00,379378837,379377638,1,Jessica'sGems,Wikipedia:Sockpuppet investigations/Karmaisking,/*  Comments by accused parties  &nbsp;&nbsp;   */
2010-08-17T10:33:42+00:00,379377638,379377494,1,Jessica'sGems,Wikipedia:Sockpuppet investigations/Karmaisking,/*  Comments by accused parties  &nbsp;&nbsp;   */
2010-08-17T10:32:11+00:00,379377494,379320344,1,Jessica'sGems,Wikipedia:Sockpuppet investigations/Karmaisking,/*  Comments by accused parties  &nbsp;&nbsp;   */
2010-08-17T09:45:20+00:00,379372694,281689347,1,Jessica'sGems,User talk:Pestergaines,
2010-08-16T13:07:00+00:00,379213039,379189226,1,Jessica'sGems,Talk:Malinvestment,
2010-08-16T12:46:51+00:00,379210688,379210529,1,Jessica'sGems,Malinvestment,
2010-08-16T12:45:29+00:00,379210529,379210304,1,Jessica'sGems,Malinvestment,
2010-08-16T12:43:39+00:00,379210304,379209924,1,Jessica'sGems,Malinvestment,REF
2010-08-16T12:40:38+00:00,379209924,379209744,1,Jessica'sGems,Malinvestment,
2010-08-16T12:39:24+00:00,379209744,379209321,1,Jessica'sGems,Malinvestment,Clean up formatting
2010-08-16T12:35:48+00:00,379209321,379209060,1,Jessica'sGems,Malinvestment,
2010-08-16T12:33:48+00:00,379209060,379208908,1,Jessica'sGems,Malinvestment,
2010-08-16T12:32:33+00:00,379208908,379207764,1,Jessica'sGems,Malinvestment,Fill out refs
2010-08-16T12:23:33+00:00,379207764,379207646,1,Jessica'sGems,Malinvestment,
2010-08-16T12:22:30+00:00,379207646,379186979,1,Jessica'sGems,Malinvestment,Clean up expression
2010-08-16T09:29:42+00:00,379189226,379189149,1,Jessica'sGems,Talk:Malinvestment,/* WP:WEIGHT vs WP:NOTCENSORED */
2010-08-16T09:28:45+00:00,379189149,379188586,1,Jessica'sGems,Talk:Malinvestment,/* WP:WEIGHT vs WP:NOTCENSORED */
2010-08-16T09:22:22+00:00,379188586,379186638,1,Jessica'sGems,Talk:Malinvestment,evidence...
2010-08-16T09:02:00+00:00,379186979,379079160,1,Jessica'sGems,Malinvestment,I don't have to prove PROMINENCE.  I HAVE TO PROVE RS AND NOTABILITY FOR THIS ARTICLE.  And I've done that on the talk page.  Cheers.
2010-08-16T08:58:18+00:00,379186638,379186380,1,Jessica'sGems,Talk:Malinvestment,/* WP:WEIGHT vs WP:NOTCENSORED */
2010-08-16T08:55:14+00:00,379186380,379186282,1,Jessica'sGems,Talk:Malinvestment,/* WP:WEIGHT vs WP:NOTCENSORED */
2010-08-16T08:54:10+00:00,379186282,379186231,1,Jessica'sGems,Talk:Malinvestment,/* WP:WEIGHT vs WP:NOTCENSORED */
2010-08-16T08:53:25+00:00,379186231,379083573,1,Jessica'sGems,Talk:Malinvestment,
2010-08-15T11:13:22+00:00,379029000,379028355,1,Jessica'sGems,Talk:Malinvestment,/* WP:WEIGHT vs WP:NOTCENSORED */
2010-08-15T11:06:54+00:00,379028355,379026391,1,Jessica'sGems,Talk:Malinvestment,/* WP:WEIGHT vs WP:NOTCENSORED */
2010-08-15T11:04:40+00:00,379028132,379027952,1,Jessica'sGems,Malinvestment,/* Government intervention */ clean up
2010-08-15T11:02:40+00:00,379027952,379025869,1,Jessica'sGems,Malinvestment,/* Austrian Business Cycle Theory and Malinvestment */
2010-08-15T10:46:34+00:00,379026391,379026086,1,Jessica'sGems,Talk:Malinvestment,/* WP:WEIGHT vs WP:NOTCENSORED */
2010-08-15T10:43:38+00:00,379026086,379025715,1,Jessica'sGems,Talk:Malinvestment,/* WP:WEIGHT vs WP:NOTCENSORED */
2010-08-15T10:41:18+00:00,379025869,379013343,1,Jessica'sGems,Malinvestment,Done - please see talk page
2010-08-15T10:39:40+00:00,379025715,357607952,1,Jessica'sGems,Talk:Malinvestment,/* John Stuart Mill vs. John Mills */
2010-08-15T08:22:03+00:00,379012849,379012304,1,Jessica'sGems,Malinvestment,Swap your Friedman with my Hayek.  Ridiculous trading of Nobels not the way to write an encyclopedia.  Pro-Austrian research should not be censored.  This is balanced and reasonable.
2010-08-15T08:17:13+00:00,379012304,379012112,1,Jessica'sGems,Malinvestment,too wordy - 'argue' means exactly the same thing.
2010-08-15T08:15:22+00:00,379012112,378980010,1,Jessica'sGems,Malinvestment,'largely' doesn't even make sense in this context.  Removed.
2010-08-15T02:47:05+00:00,378978780,378866485,1,Jessica'sGems,Malinvestment,"Still balanced, but please note this is an article about an Austrian concept, so there should be some refs to AS contributors in this article. Inapproriate just to ref MF in this article."
2022-10-26T11:10:25+00:00,1118326692,0,1,KarmaIsImmutableNaturalLaw,User:KarmaIsImmutableNaturalLaw,[[WP:AES|←]]Created page with 'I'm new to WP but I know anyone who deletes my edits will be punished for all of eternity.'
2022-10-26T11:09:17+00:00,1118326616,1116765168,1,KarmaIsImmutableNaturalLaw,Fractional-reserve banking,Karma is always and everywhere a monetary phenomenon
2008-03-07T04:48:51+00:00,196468532,196468408,1,KarmasBlackSwan,User talk:Gregalton,/* I nominated Money as Debt for deletion. */
2008-03-07T04:48:01+00:00,196468408,196468163,1,KarmasBlackSwan,User talk:Gregalton,/* I nominated Money as Debt for deletion. */
2008-03-07T04:46:24+00:00,196468163,196468042,1,KarmasBlackSwan,User talk:Gregalton,"Sorry, it's been a while and I couldn't remember the right keys to press..."
2008-03-07T04:45:34+00:00,196468042,196275801,1,KarmasBlackSwan,User talk:Gregalton,/* I nominated Money as Debt for deletion. */
2008-03-07T03:46:32+00:00,196457901,195907193,1,KarmasBlackSwan,Credit crunch,"Inserted useful cite from the Financial Times regarding the historical ""model"" for sale of worthless credit obligations"
2008-03-07T02:57:59+00:00,196448432,196237303,1,KarmasBlackSwan,Fractional-reserve banking,"It's now agreed that this entry stay in WP.  As it's a criticism of frb, it is appropriate to reference it here."
2008-03-07T02:52:17+00:00,196447349,196403390,1,KarmasBlackSwan,User talk:Zenwhat,
2008-03-07T02:38:12+00:00,196444641,196442246,1,KarmasBlackSwan,Wikipedia:Articles for deletion/Money as Debt,/* Money as Debt */
2008-03-07T02:25:42+00:00,196442246,196284104,1,KarmasBlackSwan,Wikipedia:Articles for deletion/Money as Debt,/* Money as Debt */
2008-03-05T03:15:06+00:00,195958543,194320090,1,KarmasBlackSwan,Criticism of fractional-reserve banking,Peacock terms removed.  Cites now correspond to text
2010-06-18T07:44:19+00:00,368758794,368758758,1,KeynesianCounterfeiters,Talk:Criticism of fractional-reserve banking,/* Unnecessary Censorship */
2010-06-18T07:43:56+00:00,368758758,366765993,1,KeynesianCounterfeiters,Talk:Criticism of fractional-reserve banking,/* Money / credit contractions */
2010-06-13T05:16:58+00:00,367721508,0,1,KeynesiansVsAustrians,User:KeynesiansVsAustrians,"[[WP:AES|←]]Created page with 'Parasites: Corrupt, shallow, banking-govt counterfeiters VS The Market: Doers, workers, entrepeneurs... makers.  The Biggest Contest In The World.'"
2010-08-06T10:06:44+00:00,377454703,377386441,1,KeynesLovedNow,Criticism of fractional-reserve banking,Better
2010-08-06T10:03:53+00:00,377454471,377454427,1,KeynesLovedNow,User:KeynesLovedNow,
2010-08-06T10:03:28+00:00,377454427,0,1,KeynesLovedNow,User:KeynesLovedNow,[[WP:AES|←]]Created page with 'but now always disappears to be replaced by tomorrow.  And tomorrow has come.'
2008-08-27T23:23:25+00:00,234673154,233954722,1,Kjkkkjj,User:Kjkkkjj,[[WP:AES|←]] Blanked the page
2008-08-18T21:11:14+00:00,232766888,232765856,1,Kjkkkjj,Talk:Inflation,"/* I am unofficially banned here on Wikipedia, but I can carry on as normal. Very strange indeed. */ Gregalton leave this article alone"
2008-08-18T17:24:31+00:00,232724388,232675219,1,Kjkkkjj,Talk:Inflation,"/* I am unofficially banned here on Wikipedia, but I can carry on as normal. Very strange indeed. */"
2008-08-18T12:35:48+00:00,232675219,232672589,1,Kjkkkjj,Talk:Inflation,"/* I am unofficially banned here on Wikipedia, but I can carry on as normal. Very strange indeed. */"
2008-08-18T12:15:41+00:00,232672589,232672370,1,Kjkkkjj,Talk:Inflation,"/* I am unofficially banned here on Wikipedia, but I can carry on as normal. Very strange indeed. */"
2008-08-18T12:14:17+00:00,232672370,232672178,1,Kjkkkjj,Talk:Inflation,"/* I am unofficially banned here on Wikipedia, but I can carry on as normal. Very strange indeed. */"
2008-08-18T12:12:39+00:00,232672178,232671361,1,Kjkkkjj,Talk:Inflation,"/* I am unofficially banned here on Wikipedia, but I can carry on as normal. Very strange indeed. */"
2008-08-18T12:06:12+00:00,232671361,232659414,1,Kjkkkjj,Talk:Inflation,"/* I am unofficially banned here on Wikipedia, but I can carry on as normal. Very strange indeed. */"
2008-08-18T06:06:45+00:00,232631518,232629417,1,Kjkkkjj,Inflation,/* Related definitions */ Core inflation is different from food inflation
2008-08-18T06:05:21+00:00,232631350,232630284,1,Kjkkkjj,Talk:Inflation,"/* I am unofficially banned here on Wikipedia, but I can carry on as normal. Very strange indeed. */"
2008-08-18T05:57:00+00:00,232630284,232630157,1,Kjkkkjj,Talk:Inflation,/* Inflation has a monetary and non-monetary effect */
2008-08-18T05:55:46+00:00,232630157,232629597,1,Kjkkkjj,Talk:Inflation,/* Inflation has a monetary and non-monetary effect */ I am unofficially banned but I can edit. Very strange.
2008-08-18T05:50:42+00:00,232629597,232596641,1,Kjkkkjj,Talk:Inflation,/* Inflation has a monetary and non-monetary effect */ Gregalton do you agree that inflation has a monetary and non-monetary effect?
2008-08-18T05:49:18+00:00,232629417,232629096,1,Kjkkkjj,Inflation,
2008-08-18T05:46:44+00:00,232629096,232615453,1,Kjkkkjj,Inflation,
2008-08-17T22:06:47+00:00,232564678,232548294,1,Kjkkkjj,Talk:Inflation,/* Inflation has a monetary and non-monetary effect */ Can Gregalton delete a statement that inflation destroys the value of money?
2008-08-17T20:24:10+00:00,232548294,232545477,1,Kjkkkjj,Talk:Inflation,/* Inflation has a monetary and non-monetary effect */
2008-08-17T20:06:29+00:00,232545477,232545347,1,Kjkkkjj,Talk:Inflation,/* Inflation has a monetary and non-monetary effect */
2008-08-17T20:05:48+00:00,232545347,232544653,1,Kjkkkjj,Talk:Inflation,/* Inflation has a monetary and non-monetary effect */
2008-08-17T20:01:40+00:00,232544653,232543676,1,Kjkkkjj,Talk:Inflation,/* Inflation has a monetary and non-monetary effect */
2008-08-17T19:55:16+00:00,232543676,232543091,1,Kjkkkjj,Talk:Inflation,/* Inflation has a monetary and non-monetary effect */ I have one account
2008-08-17T19:51:27+00:00,232543091,232541946,1,Kjkkkjj,Talk:Inflation,/* Inflation has a monetary and non-monetary effect */ Gregalton you are mistaken.
2008-08-17T19:42:09+00:00,232541593,232540633,1,Kjkkkjj,Talk:Inflation,/* Inflation has a monetary and non-monetary effect */
2008-08-17T19:35:59+00:00,232540633,232540443,1,Kjkkkjj,Talk:Inflation,/* Inflation has a monetary and non-monetary effect */
2008-08-17T19:34:46+00:00,232540443,232540120,1,Kjkkkjj,Talk:Inflation,/* Inflation has a monetary and non-monetary effect */
2008-08-17T19:32:34+00:00,232540120,232455653,1,Kjkkkjj,Talk:Inflation,/* The article is finally starting to look like something */ Inflation has a monetary and non-monetary effect.
2008-08-17T19:13:32+00:00,232537241,232537128,1,Kjkkkjj,Inflation,/* Effects of inflation */
2008-08-17T19:12:50+00:00,232537128,232485223,1,Kjkkkjj,Inflation,/* Effects of inflation */ Inflation has a monetary and non-monetary effect.
2008-08-17T19:06:29+00:00,232536154,232535001,1,Kjkkkjj,Inflation (disambiguation),
2008-08-17T18:59:26+00:00,232535001,232512172,1,Kjkkkjj,Inflation (disambiguation),house keeping
2008-08-17T16:23:28+00:00,232512172,232500044,1,Kjkkkjj,Inflation (disambiguation),
2008-08-17T14:49:52+00:00,232500044,232499966,1,Kjkkkjj,Inflation (disambiguation),
2008-08-17T14:49:10+00:00,232499966,232499817,1,Kjkkkjj,Inflation (disambiguation),
2008-08-17T14:47:53+00:00,232499817,232499712,1,Kjkkkjj,Inflation (disambiguation),
2008-08-17T14:46:55+00:00,232499712,232462102,1,Kjkkkjj,Inflation (disambiguation),Using the two different meanings of inflation side by side is very confusing.
2008-08-17T11:56:35+00:00,232479023,232478731,1,Kjkkkjj,Inflation,/* Related definitions */
2008-08-17T11:54:24+00:00,232478731,232473327,1,Kjkkkjj,Inflation,"/* Related definitions */ Since Gregalton, the ""owner"" of this article,  thinks core inflation is the same as a price increase of a house or commodity or food, we have to leave the mistake as is."
2008-08-17T09:03:48+00:00,232462183,232461555,1,Kjkkkjj,Inflation,/* Related definitions */ See disambiguation
2008-08-17T09:02:55+00:00,232462102,232461897,1,Kjkkkjj,Inflation (disambiguation),
2008-08-17T09:00:40+00:00,232461897,231213323,1,Kjkkkjj,Inflation (disambiguation),
2008-08-17T08:57:32+00:00,232461555,232459011,1,Kjkkkjj,Inflation,/* Related definitions */
2008-08-17T08:30:02+00:00,232459011,232452740,1,Kjkkkjj,Inflation,
2008-08-16T22:17:44+00:00,232385744,232319711,1,Kjkkkjj,Inflation,[[WP:UNDO|Undid]] revision 232319711 by [[Special:Contributions/Gregalton|Gregalton]] ([[User talk:Gregalton|talk]])
2008-08-15T20:40:18+00:00,232176591,232176437,1,Kjkkkjj,Talk:Inflation,/* A question to Keynesians */
2008-08-15T20:39:20+00:00,232176437,232174920,1,Kjkkkjj,Talk:Inflation,/* A question to Keynesians */ None of us is an altruist.
2008-08-15T20:17:22+00:00,232172612,232172484,1,Kjkkkjj,Talk:Inflation,/* A question to Keynesians */
2008-08-15T20:16:43+00:00,232172484,232171602,1,Kjkkkjj,Talk:Inflation,"/* A question to Keynesians */ DanielRigal, you can still ban me. I know enough Wikipedia tricks by now:)"
2008-08-15T20:12:30+00:00,232171602,232171434,1,Kjkkkjj,Talk:Inflation,/* A question to Keynesians */
2008-08-15T20:11:47+00:00,232171434,232170224,1,Kjkkkjj,Talk:Inflation,/* A question to Keynesians */
2008-08-15T20:05:20+00:00,232170224,232168883,1,Kjkkkjj,Talk:Inflation,/* A question to Keynesians */
2008-08-15T19:57:46+00:00,232168883,232168304,1,Kjkkkjj,Talk:Inflation,/* A question to Keynesians */
2008-08-15T19:54:18+00:00,232168304,232168124,1,Kjkkkjj,Talk:Inflation,/* A bit of Austrianism */
2008-08-15T19:53:12+00:00,232168124,232167791,1,Kjkkkjj,Talk:Inflation,/* A bit of Austrianism */
2008-08-15T19:51:01+00:00,232167791,232165793,1,Kjkkkjj,Talk:Inflation,/* A question to Keynesians */ Gregalton could be of more use to Wikipedia contributing to articles on subjects other than economics.
2008-08-15T19:24:03+00:00,232163127,232161809,1,Kjkkkjj,Talk:Inflation,/* A bit of Austrianism */
2008-08-15T19:15:48+00:00,232161809,232160208,1,Kjkkkjj,Talk:Inflation,"/* A bit of Austrianism */ Misessus, normally they ban an editor like me after what I have just told DanielRigal."
2008-08-15T19:04:48+00:00,232160208,232151032,1,Kjkkkjj,Talk:Inflation,"/* A bit of Austrianism */ DanielRigal, please read Wikipedia Policies: Neutral Point of View and Bad Faith"
2008-08-15T16:13:13+00:00,232129278,232126861,1,Kjkkkjj,Talk:Inflation,"/* A bit of Austrianism */ Misessus, unfortunately you do not know enough Wikipedia rules."
2008-08-15T15:59:01+00:00,232126861,232105593,1,Kjkkkjj,Talk:Inflation,"/* A bit of Austrianism */ Gregalton- the ""owner"" of this site - at work."
2008-08-13T20:34:53+00:00,231754324,231537944,1,Kjkkkjj,Talk:Inflation,"Gregalton ""owns"" this site"
2008-08-12T21:30:20+00:00,231537944,231505251,1,Kjkkkjj,Talk:Inflation,/* Ownership */ Good luck Misessus.
2008-08-11T21:45:26+00:00,231315964,231282788,1,Kjkkkjj,Inflation,/* Related definitions */
2008-08-11T20:04:54+00:00,231296487,231289151,1,Kjkkkjj,Talk:Inflation,/* Ownership */
2008-08-11T19:24:51+00:00,231289151,231284433,1,Kjkkkjj,Talk:Inflation,/* Ownership */
2008-08-11T18:08:44+00:00,231275131,231230977,1,Kjkkkjj,Talk:Inflation,/* Ownership */
2008-08-11T13:00:38+00:00,231221090,231220591,1,Kjkkkjj,Talk:Inflation,/* Ownership */
2008-08-11T12:57:31+00:00,231220591,231219785,1,Kjkkkjj,Talk:Inflation,/* Ownership */
2008-08-11T12:52:10+00:00,231219785,231218691,1,Kjkkkjj,Talk:Inflation,/* Ownership */
2008-08-11T12:27:04+00:00,231216089,231213982,1,Kjkkkjj,Inflation,/* Related definitions */
2008-08-11T12:10:42+00:00,231213876,231213490,1,Kjkkkjj,Talk:Inflation,/* Discussion comes first! */
2008-08-11T12:06:29+00:00,231213323,230805577,1,Kjkkkjj,Inflation (disambiguation),
2008-08-11T12:05:20+00:00,231213165,231212500,1,Kjkkkjj,Inflation,/* Effects of inflation */
2008-08-11T12:00:20+00:00,231212500,231212129,1,Kjkkkjj,Inflation,/* Related definitions */
2008-08-11T11:57:32+00:00,231212129,231212011,1,Kjkkkjj,Inflation,/* Related definitions */
2008-08-11T11:56:40+00:00,231212011,231211309,1,Kjkkkjj,Inflation,/* Related definitions */
2008-08-11T11:50:53+00:00,231211309,231205068,1,Kjkkkjj,Inflation,/* Effects of inflation */
2008-08-11T11:42:05+00:00,231210208,231184631,1,Kjkkkjj,User talk:Kjkkkjj,[[WP:AES|←]] Blanked the page
2008-08-10T21:24:05+00:00,231095134,231094768,1,Kjkkkjj,Inflation,/* Original definition */ Simply increasing the money supply is not inflation.
2008-08-10T21:22:12+00:00,231094768,231001674,1,Kjkkkjj,Inflation,Inflation is not a distinct action taken by the state.
2008-08-10T17:25:18+00:00,231052547,231043824,1,Kjkkkjj,Talk:Inflation,/* Invitation to an academic debate */
2008-08-10T11:44:28+00:00,231001490,231000553,1,Kjkkkjj,Talk:Inflation,/* Bogus definition of Inflation */ Austrian view censored on Wikipedia.
2008-08-10T11:37:02+00:00,231000553,231000490,1,Kjkkkjj,Talk:Inflation,/* Bogus definition of Inflation */
2008-08-10T11:36:29+00:00,231000490,230999628,1,Kjkkkjj,Talk:Inflation,/* Bogus definition of Inflation */ I have censored your Austrian view.
2008-08-10T11:28:17+00:00,230999628,230999570,1,Kjkkkjj,Talk:Inflation,/* Bogus definition of Inflation */
2008-08-10T11:27:40+00:00,230999570,230996441,1,Kjkkkjj,Talk:Inflation,/* Bogus definition of Inflation */ I dare you to put this educated nonsense back in the article.
2008-08-10T10:59:09+00:00,230996441,230995046,1,Kjkkkjj,Talk:Inflation,/* Bogus definition of Inflation */
2008-08-10T10:46:12+00:00,230995046,230994970,1,Kjkkkjj,Talk:Inflation,/* Bogus definition of Inflation */
2008-08-10T10:45:34+00:00,230994970,230969287,1,Kjkkkjj,Talk:Inflation,/* Bogus definition of Inflation */ We are now uneducated according to this Austrian.
2008-08-10T00:16:58+00:00,230912984,230912915,1,Kjkkkjj,Talk:Inflation,/* Bogus definition of Inflation */
2008-08-10T00:16:30+00:00,230912915,230911221,1,Kjkkkjj,Talk:Inflation,/* Bogus definition of Inflation */ The article is all yours. Abuse it as you wish.
2008-08-09T23:56:27+00:00,230909615,230909463,1,Kjkkkjj,Inflation,/* Original definition */ Personal point of view.
2008-08-09T23:55:25+00:00,230909463,230907839,1,Kjkkkjj,Inflation,Not in the introduction please
2008-08-09T23:45:47+00:00,230907839,230906839,1,Kjkkkjj,Inflation,/* Effects of inflation */ What a lot of nonsense. You should be banned from Wikipedia
2008-08-09T22:47:59+00:00,230898512,230895700,1,Kjkkkjj,Inflation,
2008-08-09T22:30:21+00:00,230895700,230888521,1,Kjkkkjj,Inflation,"Really, this is not appropriate in the introduction. There is a WHOLE PARAGRAPH about the Original Definition. What more do you want? Remove very thing that is not Austrian from this article?"
2008-08-09T21:44:46+00:00,230888521,230885929,1,Kjkkkjj,Inflation,Wikipedia is about what is main stream and generally accepted.
2008-08-09T21:13:52+00:00,230883576,230882170,1,Kjkkkjj,Inflation,/* Original definition */
2008-08-09T20:56:39+00:00,230880965,230880598,1,Kjkkkjj,Inflation,
2008-08-09T20:53:54+00:00,230880598,230880381,1,Kjkkkjj,Inflation,/* Original definition */
2008-08-09T20:49:09+00:00,230879829,230878979,1,Kjkkkjj,Inflation,/* Original definition */
2008-08-09T20:44:08+00:00,230878979,230878819,1,Kjkkkjj,Inflation,/* Original definition */
2008-08-09T20:43:15+00:00,230878819,230878472,1,Kjkkkjj,Inflation,The original definition does not differ greatly from the modern definition. Both come to the same conclusion that inflation destroys the real value of money over time.
2008-08-09T20:41:23+00:00,230878472,230878136,1,Kjkkkjj,Inflation,/* Original definition */
2008-08-09T20:39:17+00:00,230878136,230877852,1,Kjkkkjj,Inflation,/* Original definition */ Both agree that inflation destroys the real value of money over time.
2008-08-09T20:31:52+00:00,230876920,230876576,1,Kjkkkjj,Inflation,Moved to Original definition section.
2008-08-09T20:03:55+00:00,230872292,230871709,1,Kjkkkjj,Inflation,/* Effects of inflation */ Citation needed - otherwise this will be removed.
2008-08-09T20:00:35+00:00,230871709,230871485,1,Kjkkkjj,Inflation,/* Effects of inflation */ Pure theoretical speculation. Not generally accepted economic behavior.
2008-08-09T19:46:46+00:00,230869265,230866797,1,Kjkkkjj,Inflation,/* Effects of inflation */
2008-08-09T18:31:38+00:00,230855886,230853167,1,Kjkkkjj,Inflation,/* Monetarism */
2008-08-09T18:15:21+00:00,230853167,230852597,1,Kjkkkjj,Inflation,/* Effects of inflation */ Citation needed - otherwise this will be removed.
2008-08-09T18:12:13+00:00,230852597,230841154,1,Kjkkkjj,Inflation,/* Effects of inflation */ Not true
2008-08-09T17:12:02+00:00,230841154,230832741,1,Kjkkkjj,Inflation,/* Measures of inflation */  some reorganizing
2008-08-09T16:26:09+00:00,230832741,230832301,1,Kjkkkjj,Inflation,/* Measures of inflation */
2008-08-09T16:23:38+00:00,230832301,230818959,1,Kjkkkjj,Inflation,/* Measures of inflation */
2008-08-09T15:00:24+00:00,230818959,230818269,1,Kjkkkjj,Inflation,/* Measures of inflation */
2008-08-09T14:55:51+00:00,230818269,230818102,1,Kjkkkjj,Inflation,/* Measures of inflation */
2008-08-09T14:54:43+00:00,230818102,230817635,1,Kjkkkjj,Inflation,/* Measures of inflation */
2008-08-09T14:52:12+00:00,230817635,230817179,1,Kjkkkjj,Inflation,/* Measures of inflation */ There is only one value that represents the increase in the general level of prices of goods and services.
2008-08-09T14:49:28+00:00,230817179,230816988,1,Kjkkkjj,Inflation,/* Original definition */
2008-08-09T14:48:17+00:00,230816988,230816803,1,Kjkkkjj,Inflation,/* Original definition */ Currency is only about 7% of total money supply.
2008-08-09T14:46:57+00:00,230816803,230815560,1,Kjkkkjj,Inflation,/* Original definition */
2008-08-09T14:38:47+00:00,230815560,230811725,1,Kjkkkjj,Inflation,Not true. CPI measures total inflation. There is only one value for the increase in the general price level of goods and services.
2008-08-09T14:12:21+00:00,230811725,230806047,1,Kjkkkjj,Inflation,/* Effects of inflation */
2008-08-09T13:28:47+00:00,230806047,230804841,1,Kjkkkjj,Inflation,/* Effects of inflation */ Correct me if I am wrong. I am not an Austrian economist.
2008-08-09T13:24:43+00:00,230805577,229428028,1,Kjkkkjj,Inflation (disambiguation),
2008-08-09T13:18:28+00:00,230804841,230804599,1,Kjkkkjj,Inflation,/* Effects of inflation */
2008-08-09T13:16:18+00:00,230804599,230799775,1,Kjkkkjj,Inflation,/* Effects of inflation */
2008-08-09T11:51:20+00:00,230795015,230794530,1,Kjkkkjj,Inflation,/* Original definition */ clarified
2008-08-09T11:47:11+00:00,230794530,230792300,1,Kjkkkjj,Inflation,/* Original definition */
2008-08-09T11:25:57+00:00,230792300,230788190,1,Kjkkkjj,Inflation,/* Original definition */ Citations needed.
2008-08-09T10:49:46+00:00,230788190,230787762,1,Kjkkkjj,Inflation,/* Related definitions */
2008-08-09T10:45:57+00:00,230787762,230787170,1,Kjkkkjj,Inflation,"/* Related definitions */ ""a rise in the prices of some specific set of goods"" is not a related definition of inflation a rise in the general price level. Deflation and hyperinflation are."
2008-08-09T10:34:44+00:00,230786506,230785164,1,Kjkkkjj,Talk:Inflation,/* Calculating monthly inflation rates */
2008-08-09T10:22:26+00:00,230785164,230785130,1,Kjkkkjj,Talk:Inflation,/* Calculating monthly inflation rates */
2008-08-09T10:22:07+00:00,230785130,230778681,1,Kjkkkjj,Talk:Inflation,/* Calculating monthly inflation rates */ It is the same as compound interest
2008-08-08T18:24:01+00:00,230660790,230659567,1,Kjkkkjj,Talk:Inflation,/* Logic is not a person´s editorial opinion */
2008-08-08T18:17:35+00:00,230659567,230658217,1,Kjkkkjj,Talk:Inflation,/* Logic is not a person´s editorial opinion */
2008-08-08T18:10:23+00:00,230658217,230649464,1,Kjkkkjj,Talk:Inflation,/* Inflation = leads to a decline in the value of money is not the same as inflation = price increase */
2008-08-08T17:22:49+00:00,230649116,230648970,1,Kjkkkjj,Inflation,/* Related definitions */
2008-08-08T17:22:02+00:00,230648970,230648600,1,Kjkkkjj,Inflation,/* Related definitions */ May be ambiguous and confusing.
2008-08-08T17:20:08+00:00,230648600,230648052,1,Kjkkkjj,Inflation,/* Related definitions */
2008-08-08T17:17:10+00:00,230648052,230600383,1,Kjkkkjj,Inflation,/* Related definitions */ A price increase in not the same as an increase in the general price level
2008-08-08T17:13:11+00:00,230647373,230645282,1,Kjkkkjj,Talk:Inflation,/* CPI as measure of inflation */ A price increase in not the same as an increase in the general price level.
2008-08-08T17:01:49+00:00,230645282,230644933,1,Kjkkkjj,Talk:Inflation,/* CPI as measure of inflation */
2008-08-08T16:59:51+00:00,230644933,230644731,1,Kjkkkjj,Talk:Inflation,/* CPI as measure of inflation */
2008-08-08T16:58:43+00:00,230644731,230644626,1,Kjkkkjj,Talk:Inflation,/* CPI as measure of inflation */
2008-08-08T16:58:02+00:00,230644626,230601890,1,Kjkkkjj,Talk:Inflation,/* CPI as measure of inflation */It is debating point.
2008-08-08T12:41:19+00:00,230600981,230107120,1,Kjkkkjj,Talk:Inflation,/* Disambiguation link leading to another true but ambiguous statement */ CPI as measure of inflation
2008-08-08T12:17:54+00:00,230598141,230598065,1,Kjkkkjj,Inflation,/* Measures of inflation */
2008-08-08T12:17:15+00:00,230598065,230597874,1,Kjkkkjj,Inflation,/* Measures of inflation */ Move to measuring section
2008-08-08T12:15:50+00:00,230597874,230597358,1,Kjkkkjj,Inflation,Moving to measuring inflation section
2008-08-08T12:11:11+00:00,230597358,230588405,1,Kjkkkjj,Inflation,/* Related definitions */ Commodities inflation = simply an increase in the price of commodities. Core inflation = a general price level increase excluding one or two products. Not 2 use 2 concepts
2008-08-07T20:23:00+00:00,230474009,230473158,1,Kjkkkjj,Inflation,/* Effects of inflation */
2008-08-07T20:18:24+00:00,230473158,230470715,1,Kjkkkjj,Inflation,/* Effects of inflation */
2008-08-07T20:05:19+00:00,230470715,230468209,1,Kjkkkjj,Inflation,/* Effects of inflation */
2008-08-07T19:49:55+00:00,230467999,230467356,1,Kjkkkjj,Inflation,/* Effects of inflation */
2008-08-07T19:46:23+00:00,230467356,230466121,1,Kjkkkjj,Inflation,/* Effects of inflation */
2008-08-07T19:39:13+00:00,230466048,230465891,1,Kjkkkjj,Inflation,/* Effects of inflation */
2008-08-07T19:32:33+00:00,230464771,230464581,1,Kjkkkjj,Inflation,/* Effects of inflation */
2008-08-07T19:31:38+00:00,230464581,230461475,1,Kjkkkjj,Inflation,/* Effects of inflation */
2008-08-07T19:15:42+00:00,230461475,230460175,1,Kjkkkjj,Inflation,/* Effects of inflation */ Inflation is a decline in the value of money.
2008-08-07T19:00:46+00:00,230458790,230456343,1,Kjkkkjj,Inflation,
2008-08-07T18:46:59+00:00,230456343,230408413,1,Kjkkkjj,Inflation,Inflation is exactly the same as a decline in the value of money.
2008-08-04T22:44:09+00:00,229868454,229866430,1,Kjkkkjj,Inflation,
2008-08-04T22:32:11+00:00,229866430,229848561,1,Kjkkkjj,Inflation,Central Banks are tasked with keeping inflation at low levels.
2008-08-02T20:14:22+00:00,229458733,229427521,1,Kjkkkjj,Inflation,Reference to CPI is made later in the introduction. Removed unnecessary repetition.
2008-08-02T16:41:26+00:00,229428028,229427696,1,Kjkkkjj,Inflation (disambiguation),
2008-08-02T16:39:07+00:00,229427696,229113923,1,Kjkkkjj,Inflation (disambiguation),Inflation meaning simply a price increase is different from inflation meaning a rise in the general price level.
2008-08-02T16:37:46+00:00,229427521,229426559,1,Kjkkkjj,Inflation,Removed inflation meaning a price increase from inflation meaning a increase in the general price level.
2008-08-02T16:30:23+00:00,229426559,229426020,1,Kjkkkjj,Inflation,
2008-08-02T16:26:38+00:00,229426020,229415499,1,Kjkkkjj,Inflation,
2008-08-02T15:10:28+00:00,229415499,229415426,1,Kjkkkjj,Inflation,
2008-08-02T15:10:02+00:00,229415426,229415348,1,Kjkkkjj,Inflation,
2008-08-02T15:09:29+00:00,229415348,229409379,1,Kjkkkjj,Inflation,
2008-08-02T14:22:47+00:00,229409379,229408502,1,Kjkkkjj,Inflation,
2008-08-02T14:15:49+00:00,229408502,229408185,1,Kjkkkjj,Inflation,
2008-08-02T14:13:12+00:00,229408185,229094719,1,Kjkkkjj,Inflation,A bit of reorganization.
2008-07-31T23:05:08+00:00,229117520,229113670,1,Kjkkkjj,Talk:Inflation,/* Disambiguation link leading to another true but ambiguous statement */
2008-07-31T22:44:54+00:00,229113923,205864002,1,Kjkkkjj,Inflation (disambiguation),Inflation is a rise in the general level of prices of goods and services over time.
2008-07-31T22:43:26+00:00,229113670,229109660,1,Kjkkkjj,Talk:Inflation,/* Disambiguation link leading to another true but ambiguous statement */
2008-07-31T22:20:28+00:00,229109660,229106636,1,Kjkkkjj,Talk:Inflation,/* Disambiguation link leading to another true but ambiguous statement */
2008-07-31T22:03:28+00:00,229106636,229105954,1,Kjkkkjj,Talk:Inflation,/* Disambiguation link leading to another true but ambiguous statement */
2008-07-31T22:00:06+00:00,229105954,229104673,1,Kjkkkjj,Talk:Inflation,/* Disambiguation link leading to another true but ambiguous statement */
2008-07-31T21:53:30+00:00,229104673,229103711,1,Kjkkkjj,Talk:Inflation,/* Disambiguation link leading to another true but ambiguous statement */
2008-07-31T21:48:29+00:00,229103711,229103595,1,Kjkkkjj,Talk:Inflation,/* =Disambiguation link leading to another true but ambiguous statement */
2008-07-31T21:47:56+00:00,229103595,229100415,1,Kjkkkjj,Talk:Inflation,/* supply and demand */
2008-07-31T21:32:01+00:00,229100415,229097280,1,Kjkkkjj,Talk:Inflation,/* supply and demand */
2008-07-31T21:16:22+00:00,229097280,229094801,1,Kjkkkjj,Talk:Inflation,/* supply and demand */
2008-07-31T21:04:11+00:00,229094801,229090815,1,Kjkkkjj,Talk:Inflation,/* supply and demand */
2008-07-31T20:44:37+00:00,229090815,229090706,1,Kjkkkjj,Talk:Inflation,/* supply and demand */
2008-07-31T20:44:04+00:00,229090706,229085233,1,Kjkkkjj,Talk:Inflation,/* supply and demand */
2008-07-31T20:15:36+00:00,229085233,229084656,1,Kjkkkjj,Talk:Inflation,/* supply and demand */
2008-07-31T20:12:20+00:00,229084656,229084565,1,Kjkkkjj,Talk:Inflation,/* supply and demand */
2008-07-31T20:10:24+00:00,229084310,229082033,1,Kjkkkjj,Talk:Inflation,/* supply and demand */
2008-07-31T19:57:39+00:00,229082033,229081906,1,Kjkkkjj,Talk:Inflation,/* supply and demand */
2008-07-31T19:56:55+00:00,229081906,229081782,1,Kjkkkjj,Talk:Inflation,/* supply and demand */
2008-07-31T19:56:14+00:00,229081782,229079629,1,Kjkkkjj,Talk:Inflation,/* supply and demand */
2008-07-31T19:41:57+00:00,229079227,229078180,1,Kjkkkjj,Talk:Inflation,/* supply and demand */
2008-07-31T19:36:12+00:00,229078180,229072123,1,Kjkkkjj,Talk:Inflation,/* supply and demand */
2008-07-31T18:58:52+00:00,229071175,229061464,1,Kjkkkjj,Inflation,A price increase is not inflation as in a rise in the general price level. I do think it is needed. Another editor think it is not needed and removes it by simply stating: it is not needed. And now?
2008-07-31T17:55:11+00:00,229059255,229026349,1,Kjkkkjj,Inflation,For other uses see Supply and demand
2008-07-26T10:53:59+00:00,227991730,227715771,1,Kjkkkjj,Inflation,/* Causes of inflation */ Corrections
2008-07-21T11:59:10+00:00,226978963,226950133,1,Kjkkkjj,Inflation,The erosiono of the real value of money has nothing to do with inflation.
2008-07-20T16:45:08+00:00,226831723,226751756,1,Kjkkkjj,Inflation,Edit definition.
2008-07-18T18:41:02+00:00,226493334,226492582,1,Kjkkkjj,Inflation,/* Causes of inflation */ Deleted original research
2008-07-18T18:09:29+00:00,226488253,226484752,1,Kjkkkjj,Inflation,/* Causes of inflation */
2008-07-18T17:49:23+00:00,226484752,226484404,1,Kjkkkjj,Inflation,/* Causes of inflation */
2008-07-18T17:47:20+00:00,226484404,226442523,1,Kjkkkjj,Inflation,/* Causes of inflation */ this is original research to suggest that money´s value could be actually failing - and should be deleted
2008-07-18T13:25:33+00:00,226442523,226442320,1,Kjkkkjj,Inflation,/* Causes of inflation */ Citation needed
2008-07-18T13:23:56+00:00,226442320,226437090,1,Kjkkkjj,Inflation,/* Causes of inflation */ Citation needed
2008-07-18T12:42:05+00:00,226437090,226436719,1,Kjkkkjj,Inflation,/* Causes of inflation */
2008-07-18T12:38:54+00:00,226436719,226435693,1,Kjkkkjj,Inflation,/* Causes of inflation */ All increased prices are infaltionary.
2008-07-18T12:29:48+00:00,226435693,226434643,1,Kjkkkjj,Inflation,/* Causes of inflation */ Likewise all increased prices that are passed on to consumers are thus inflationary and adds to inflation
2008-07-18T12:21:40+00:00,226434643,226434545,1,Kjkkkjj,Inflation,/* Causes of inflation */
2008-07-18T12:20:55+00:00,226434545,226432743,1,Kjkkkjj,Inflation,/* Causes of inflation */ Every price increase is and leads to inflation.
2008-07-18T11:44:36+00:00,226430093,226429576,1,Kjkkkjj,Inflation,/* Causes of inflation */
2008-07-18T11:40:25+00:00,226429576,226414075,1,Kjkkkjj,Inflation,/* Causes of inflation */ A price increase for an exactly equivalent increase in value is not inflation.
2008-07-17T19:01:42+00:00,226294778,226245776,1,Kjkkkjj,Talk:Inflation,/* Definitions from prominent textbooks */ Is it not generally accepted that inflation always erodes the value of money?
2008-07-14T21:31:48+00:00,225679385,225679111,1,Kjkkkjj,Talk:Inflation,/* Inflation... definition */ More about the definition of inflation.
2008-07-14T21:30:23+00:00,225679111,225675361,1,Kjkkkjj,Talk:Inflation,moved to Definition section
2008-07-14T21:10:04+00:00,225675361,225571863,1,Kjkkkjj,Talk:Inflation,/* Market Basket */ Maybe Dictionary.com can give a better presentation of inflation than this article ==
2008-07-07T22:45:14+00:00,224235243,224217004,1,Kjkkkjj,Inflation,Citation needed
2020-02-22T12:58:33+00:00,942077289,942077091,1,Lagarde'sInflationMoustache,List of monetary reformers,
2020-02-22T12:56:24+00:00,942077091,942076942,1,Lagarde'sInflationMoustache,List of monetary reformers,
2020-02-22T12:54:45+00:00,942076942,942076707,1,Lagarde'sInflationMoustache,List of monetary reformers,
2020-02-22T12:53:48+00:00,942076842,0,1,Lagarde'sInflationMoustache,User:Lagarde'sInflationMoustache,[[WP:AES|←]]Created page with 'Hi I've been around for a long time.  So I must be OK.'
2020-02-22T12:52:18+00:00,942076707,942073087,1,Lagarde'sInflationMoustache,List of monetary reformers,/* Austrian School (gold standard or full-reserve banking supporters) */
2014-04-08T03:44:28+00:00,603251683,458584784,1,Lagarde'sInflationMoustache,User talk:MadMak'sBack,
2008-05-08T13:34:24+00:00,211026179,211005088,1,Lagrandebanquesucre,Anal sex,/* Christianity */  most do
2008-05-08T13:27:11+00:00,211025109,211023228,1,Lagrandebanquesucre,Talk:Criticism of fractional-reserve banking,/* Strange Bizarre Edit War Suddenly Appears */
2008-05-08T13:14:57+00:00,211023228,211022742,1,Lagrandebanquesucre,Talk:Criticism of fractional-reserve banking,/* Strange Bizarre Edit War Suddenly Appears */
2008-05-08T13:11:55+00:00,211022742,211021542,1,Lagrandebanquesucre,Talk:Criticism of fractional-reserve banking,/* Strange Bizarre Edit War Suddenly Appears */
2008-05-08T13:03:58+00:00,211021542,211021395,1,Lagrandebanquesucre,Talk:Criticism of fractional-reserve banking,/* Strange Bizarre Edit War Suddenly Appears */
2008-05-08T13:03:09+00:00,211021395,211021214,1,Lagrandebanquesucre,Talk:Criticism of fractional-reserve banking,/* Strange Bizarre Edit War Suddenly Appears */
2008-05-08T13:01:45+00:00,211021214,210991287,1,Lagrandebanquesucre,Talk:Criticism of fractional-reserve banking,/* Strange Bizarre Edit War Suddenly Appears */
2008-05-08T09:03:44+00:00,210992965,210992392,1,Lagrandebanquesucre,Criticism of fractional-reserve banking,/* Basic nature of system */  Specific cite for Labour Treasury Certificates
2008-05-08T08:57:56+00:00,210992392,210985582,1,Lagrandebanquesucre,Criticism of fractional-reserve banking,"Correct term is Labour Treasury Certificate, issued during the interwar years"
2008-05-08T07:50:24+00:00,210986013,210983722,1,Lagrandebanquesucre,Talk:Criticism of fractional-reserve banking,"/* Please, I don't want to fight you (but I will if I have to, and I'll have fun doing it) */"
2008-05-08T07:45:59+00:00,210985582,210982480,1,Lagrandebanquesucre,Criticism of fractional-reserve banking,Minor edit
2008-05-08T07:42:16+00:00,210985175,210945842,1,Lagrandebanquesucre,Keynesian economics,Cleaned up typo
2008-05-08T07:36:21+00:00,210984627,210392263,1,Lagrandebanquesucre,Monetary reform,
2008-05-08T07:27:34+00:00,210983722,210983097,1,Lagrandebanquesucre,Talk:Criticism of fractional-reserve banking,/* Strange Bizarre Edit War Suddenly Appears */
2008-05-08T07:21:46+00:00,210983097,210982886,1,Lagrandebanquesucre,Talk:Criticism of fractional-reserve banking,/* Strange Bizarre Edit War Suddenly Appears */
2008-05-08T07:19:37+00:00,210982886,210982110,1,Lagrandebanquesucre,Talk:Criticism of fractional-reserve banking,"/* ""Government-issued fiat currency can be issued debt-free"" - Dubious/Discuss */"
2008-05-08T07:15:19+00:00,210982480,210982178,1,Lagrandebanquesucre,Criticism of fractional-reserve banking,The WHOLE ARTICLE is already flagged.  Extensive discussions on numerous edits already discussed and resolved.  3RRR
2008-05-08T06:56:30+00:00,210980799,210980704,1,Lagrandebanquesucre,Fractional-reserve banking,/* Criticism */
2008-05-08T06:55:31+00:00,210980704,210980563,1,Lagrandebanquesucre,Fractional-reserve banking,/* Criticism */  typo
2008-05-08T06:53:59+00:00,210980563,210976220,1,Lagrandebanquesucre,Fractional-reserve banking,/* Criticism */  Added refs and clarified that full reserve banking is normally advocated only in association with a policy of intoducing govt-issued debt-free fiat from Treasury
2008-05-08T06:43:59+00:00,210979600,210824781,1,Lagrandebanquesucre,Austrian school of economics,It's not just macro...whoever put this in has very little knowledge of pricing theory
2008-05-08T06:42:52+00:00,210979518,210979158,1,Lagrandebanquesucre,Talk:Fractional-reserve banking,/* Austrian soapboxing */
2008-05-08T06:39:26+00:00,210979158,210707308,1,Lagrandebanquesucre,Talk:Fractional-reserve banking,/* Incompatible with a gold standard? How so? And other non-documented criticisms */
2008-05-08T06:28:52+00:00,210978156,210978139,1,Lagrandebanquesucre,User talk:Gregalton,/* No Barbarians Please */
2008-05-08T06:28:32+00:00,210978139,210976425,1,Lagrandebanquesucre,User talk:Gregalton,
2008-05-08T06:16:37+00:00,210977051,210967550,1,Lagrandebanquesucre,Criticism of fractional-reserve banking,Please see talk page - detailed explanations for all edits to date provided on talk page - 3RR invoked.
2008-05-08T03:48:00+00:00,210960482,210960397,1,Lagrandebanquesucre,Criticism of fractional-reserve banking,
2008-05-08T03:47:16+00:00,210960397,210943211,1,Lagrandebanquesucre,Criticism of fractional-reserve banking,Removed until someone can find a cite (it's been sitting there without a ref for months)
2008-05-08T03:45:55+00:00,210960223,210960077,1,Lagrandebanquesucre,Talk:Criticism of fractional-reserve banking,/* Clean up of Cites in Conventional Analysis */
2008-05-08T03:44:47+00:00,210960077,210957785,1,Lagrandebanquesucre,Talk:Criticism of fractional-reserve banking,/* Clean up of Cites in Conventional Analysis */
2008-05-08T03:27:14+00:00,210957785,210957319,1,Lagrandebanquesucre,Talk:Criticism of fractional-reserve banking,"/* Please, I don't want to fight you (but I will if I have to, and I'll have fun doing it) */"
2008-05-08T03:23:42+00:00,210957319,210778989,1,Lagrandebanquesucre,Talk:Criticism of fractional-reserve banking,"/* Please, I don't want to fight you (but I will if I have to, and I'll have fun doing it) */"
2008-05-08T01:54:45+00:00,210943211,210941696,1,Lagrandebanquesucre,Criticism of fractional-reserve banking,/* Basic nature of system */
2008-05-08T01:46:08+00:00,210941696,210935224,1,Lagrandebanquesucre,Criticism of fractional-reserve banking,
2008-05-08T01:09:39+00:00,210935224,210513965,1,Lagrandebanquesucre,Criticism of fractional-reserve banking,Added Minsky because the Minsky moment is getting more play now and (incredibly) he is finally becoming more prominent (albeit posthumously)
2008-05-08T00:08:21+00:00,210923735,210923581,1,Lagrandebanquesucre,Talk:Mainstream economics,/* Is Ausrian Economics Really Heterodox??? */
2008-05-08T00:07:24+00:00,210923581,210923508,1,Lagrandebanquesucre,Talk:Mainstream economics,/* Is Ausrian Economics Really Heterodox??? */
2008-05-08T00:07:00+00:00,210923508,210777192,1,Lagrandebanquesucre,Talk:Mainstream economics,/* Is Ausrian Economics Really Heterodox??? */
2008-05-07T11:06:18+00:00,210778989,210778918,1,Lagrandebanquesucre,Talk:Criticism of fractional-reserve banking,"/* Please, I don't want to fight you (but I will if I have to, and I'll have fun doing it) */"
2008-05-07T11:05:39+00:00,210778918,210778710,1,Lagrandebanquesucre,Talk:Criticism of fractional-reserve banking,"/* Please, I don't want to fight you (but I will if I have to, and I'll have fun doing it) */"
2008-05-07T11:03:50+00:00,210778710,210777856,1,Lagrandebanquesucre,Talk:Criticism of fractional-reserve banking,"/* Please, I don't want to fight you (but I will if I have to, and I'll have fun doing it) */"
2008-05-07T10:56:21+00:00,210777856,210721584,1,Lagrandebanquesucre,Talk:Criticism of fractional-reserve banking,"/* Please, I don't want to fight you (but I will if I have to, and I'll have fun doing it) */"
2008-05-07T10:51:35+00:00,210777356,210776006,1,Lagrandebanquesucre,Mainstream economics,
2008-05-07T10:50:13+00:00,210777192,210777029,1,Lagrandebanquesucre,Talk:Mainstream economics,/* Is Ausrian Economics Really Heterodox??? */
2008-05-07T10:48:37+00:00,210777029,210776487,1,Lagrandebanquesucre,Talk:Mainstream economics,/* Is Ausrian Economics Really Heterodox??? */
2008-05-07T10:41:55+00:00,210776338,193190036,1,Lagrandebanquesucre,Talk:Mainstream economics,/* Is Ausrian Economics Really Heterodox??? */
2008-05-07T10:38:45+00:00,210776006,210775956,1,Lagrandebanquesucre,Mainstream economics,
2008-05-07T10:38:20+00:00,210775956,210775887,1,Lagrandebanquesucre,Mainstream economics,
2008-05-07T10:37:48+00:00,210775887,210775827,1,Lagrandebanquesucre,Mainstream economics,
2008-05-07T10:37:20+00:00,210775827,210775771,1,Lagrandebanquesucre,Mainstream economics,
2008-05-07T10:36:56+00:00,210775771,210775658,1,Lagrandebanquesucre,Mainstream economics,
2008-05-07T10:36:04+00:00,210775658,210775471,1,Lagrandebanquesucre,Mainstream economics,
2008-05-07T10:34:29+00:00,210775471,179115371,1,Lagrandebanquesucre,Mainstream economics,Slight clarification.
2008-05-07T02:49:00+00:00,210721584,210720506,1,Lagrandebanquesucre,Talk:Criticism of fractional-reserve banking,/* Clean up of Cites in Conventional Analysis */
2008-05-07T02:42:02+00:00,210720506,210720311,1,Lagrandebanquesucre,Talk:Criticism of fractional-reserve banking,/* Clean up of Cites in Conventional Analysis */
2008-05-07T02:40:47+00:00,210720311,210719316,1,Lagrandebanquesucre,Talk:Criticism of fractional-reserve banking,/* Clean up of Cites in Conventional Analysis */
2008-05-07T02:33:48+00:00,210719316,210718967,1,Lagrandebanquesucre,Talk:Criticism of fractional-reserve banking,"/* Please, I don't want to fight you (but I will if I have to, and I'll have fun doing it) */"
2008-05-07T02:31:23+00:00,210718967,210716284,1,Lagrandebanquesucre,Talk:Criticism of fractional-reserve banking,"/* Please, I don't want to fight you (but I will if I have to, and I'll have fun doing it) */"
2008-05-07T02:13:56+00:00,210716284,210514878,1,Lagrandebanquesucre,Talk:Criticism of fractional-reserve banking,"/* Please, I don't want to fight you (but I will if I have to, and I'll have fun doing it) */"
2008-05-06T06:35:30+00:00,210513965,210512480,1,Lagrandebanquesucre,Criticism of fractional-reserve banking,There's an article on Zarlenga so I've done an internal ref.
2008-05-06T06:29:10+00:00,210513387,210513272,1,Lagrandebanquesucre,Talk:Criticism of fractional-reserve banking,/* Clean up of Cites in Conventional Analysis */
2008-05-06T06:27:34+00:00,210513272,210512851,1,Lagrandebanquesucre,Talk:Criticism of fractional-reserve banking,/* Clean up of Cites in Conventional Analysis */
2008-05-06T06:22:51+00:00,210512851,210512685,1,Lagrandebanquesucre,Talk:Criticism of fractional-reserve banking,/* Clean up of Cites in Conventional Analysis */
2008-05-06T06:21:01+00:00,210512655,210512364,1,Lagrandebanquesucre,Talk:Criticism of fractional-reserve banking,/* Clean up of Cites in Conventional Analysis */
2008-05-06T06:19:19+00:00,210512480,210508327,1,Lagrandebanquesucre,Criticism of fractional-reserve banking,"3R rule kicks in.  Please see talk page.  I've been reasonable, Gregalton isn't being reasonable.  Help."
2008-05-06T06:18:12+00:00,210512364,210508199,1,Lagrandebanquesucre,Talk:Criticism of fractional-reserve banking,/* Clean up of Cites in Conventional Analysis */
2008-05-06T05:31:40+00:00,210507249,210503031,1,Lagrandebanquesucre,Criticism of fractional-reserve banking,Please see talk page.  CEA disproportionate on this page and largely irrelevant.  The fact that it was refed is irrevelant if the material itself is irrelevant.  And it is irrevelant.
2008-05-06T05:22:42+00:00,210506041,210505979,1,Lagrandebanquesucre,Talk:Criticism of fractional-reserve banking,/* Clean up of Cites in Conventional Analysis */
2008-05-06T05:22:00+00:00,210505979,210505842,1,Lagrandebanquesucre,Talk:Criticism of fractional-reserve banking,/* Clean up of Cites in Conventional Analysis */
2008-05-06T05:20:55+00:00,210505842,210505704,1,Lagrandebanquesucre,Talk:Criticism of fractional-reserve banking,/* Clean up of Cites in Conventional Analysis */
2008-05-06T05:19:47+00:00,210505704,210503150,1,Lagrandebanquesucre,Talk:Criticism of fractional-reserve banking,/* Clean up of Cites in Conventional Analysis */
2008-05-06T04:36:31+00:00,210500087,210467206,1,Lagrandebanquesucre,Talk:Criticism of fractional-reserve banking,/* Friedman et al claims */
2008-05-06T02:50:29+00:00,210483934,210483758,1,Lagrandebanquesucre,Criticism of fractional-reserve banking,cut a few see alsos down
2008-05-06T02:49:28+00:00,210483758,210470093,1,Lagrandebanquesucre,Criticism of fractional-reserve banking,Minimal see alsos just to explain the context of the article
2008-05-06T02:26:31+00:00,210480031,210479589,1,Lagrandebanquesucre,American Monetary Institute,
2008-05-06T02:23:59+00:00,210479589,205848891,1,Lagrandebanquesucre,American Monetary Institute,Tidied it up.  And removed warning tag.
2008-05-06T01:50:49+00:00,210473620,210471594,1,Lagrandebanquesucre,User talk:Lagrandebanquesucre,/* Speedy deletion of Ellen Hodgson Brown */
2008-05-06T01:42:20+00:00,210472037,0,1,Lagrandebanquesucre,Stephen Zarlenga,"[[WP:AES|←]]Created page with ''''Stephen A. Zarlenga''' is director of the [[American Monetary Institute]], an institute dedicted to [[monetary reform]] in the United States.  He is the author o...'"
2008-05-06T01:31:22+00:00,210470093,210469656,1,Lagrandebanquesucre,Criticism of fractional-reserve banking,/* Conventional economic analysis */
2008-05-06T01:28:50+00:00,210469656,210468929,1,Lagrandebanquesucre,Criticism of fractional-reserve banking,"Put ""fringe"" writers in proper context in CEA."
2008-05-06T01:24:49+00:00,210468929,210466519,1,Lagrandebanquesucre,Criticism of fractional-reserve banking,Typo
2008-05-06T01:15:45+00:00,210467206,210459826,1,Lagrandebanquesucre,Talk:Criticism of fractional-reserve banking,/* Clean up of Cites in Conventional Analysis */
2008-05-06T01:12:16+00:00,210466519,210466208,1,Lagrandebanquesucre,Criticism of fractional-reserve banking,"Now, isn't that much cleaner?  CEA looks tidy now, and at least bears some relevance to the article.  The rest was a strange mixture of shadow boxing and irrelevant trivia."
2008-05-06T01:10:59+00:00,210466208,210466096,1,Lagrandebanquesucre,Criticism of fractional-reserve banking,/* Conventional economic analysis */
2008-05-06T01:10:19+00:00,210466096,210465946,1,Lagrandebanquesucre,Criticism of fractional-reserve banking,What?  Irrelevant gibberish deleted
2008-05-06T01:09:32+00:00,210465946,210465744,1,Lagrandebanquesucre,Criticism of fractional-reserve banking,Minor tidy up
2008-05-06T01:08:28+00:00,210465744,210465521,1,Lagrandebanquesucre,Criticism of fractional-reserve banking,Austrians have nothing to do with monetarists.  Friedman would not be welcome in von Mises's (or Rothbard's) home.
2008-05-06T01:07:17+00:00,210465521,210465433,1,Lagrandebanquesucre,Criticism of fractional-reserve banking,Sentence without reference or support.  Deleted
2008-05-06T01:06:44+00:00,210465433,210465217,1,Lagrandebanquesucre,Criticism of fractional-reserve banking,/* Conventional economic analysis */  Sentence completely without reference or support - deleted
2008-05-06T01:05:42+00:00,210465217,210465014,1,Lagrandebanquesucre,Criticism of fractional-reserve banking,Cutting down further irrelevant rubbish in CEA
2008-05-06T01:04:46+00:00,210465014,210464664,1,Lagrandebanquesucre,Criticism of fractional-reserve banking,"Irrelevent stuff in CEA removed.  This has NOTHING whatever to do with the title of the article.  Please work on ""monetary policy"" if you are interested in CEA"
2008-05-06T01:03:07+00:00,210464664,210462398,1,Lagrandebanquesucre,Criticism of fractional-reserve banking,"Lots of blah, blah blah removed from CEA that was completely irrelevant to the article.  Guff cut down."
2008-05-06T00:52:20+00:00,210462398,210461815,1,Lagrandebanquesucre,Criticism of fractional-reserve banking,minor clarification.  They'll all be minor typo/reference corrections unless otherwise stated
2008-05-06T00:49:28+00:00,210461815,210447263,1,Lagrandebanquesucre,Criticism of fractional-reserve banking,
2008-05-06T00:39:19+00:00,210459826,210445788,1,Lagrandebanquesucre,Talk:Criticism of fractional-reserve banking,"/* Please, I don't want to fight you (but I will if I have to, and I'll have fun doing it) */"
2008-05-05T23:39:17+00:00,210447263,210432335,1,Lagrandebanquesucre,Criticism of fractional-reserve banking,"Changed first sentence to accomodate talk page discussion.  This should be ""neutral"" now.  Also POV tendentious - no major edits have occurred, and yet POV was put back on w/o explanation. Pls explain"
2008-05-05T23:31:53+00:00,210445788,210365599,1,Lagrandebanquesucre,Talk:Criticism of fractional-reserve banking,"/* Please, I don't want to fight you (but I will if I have to, and I'll have fun doing it) */"
2008-05-05T12:37:02+00:00,210311449,210311309,1,Lagrandebanquesucre,Criticism of fractional-reserve banking,/* Basic nature of system */
2008-05-05T12:36:15+00:00,210311309,210310755,1,Lagrandebanquesucre,Criticism of fractional-reserve banking,"Minor tidy ups.  M0 is actually still debt-based, as a bond is issued from the Fed to support its issuance.  Only US Notes and silver certificates have been ""genuinely"" debt-free."
2008-05-05T12:32:48+00:00,210310755,210310023,1,Lagrandebanquesucre,Criticism of fractional-reserve banking,"Refined description of fiat (article appears to be referring to debt-free fiat, such as US Note or silver certificates)"
2008-05-05T12:28:19+00:00,210310023,210278417,1,Lagrandebanquesucre,Criticism of fractional-reserve banking,/* Basic nature of system */
2008-05-05T12:15:33+00:00,210308218,210307846,1,Lagrandebanquesucre,Talk:Criticism of fractional-reserve banking,"/* Please, I don't want to fight you (but I will if I have to, and I'll have fun doing it) */"
2008-05-05T12:12:43+00:00,210307846,210307488,1,Lagrandebanquesucre,Talk:Criticism of fractional-reserve banking,
2008-05-05T12:09:45+00:00,210307488,210307318,1,Lagrandebanquesucre,Talk:Criticism of fractional-reserve banking,"/* Please, I don't want to fight you (but I will if I have to, and I'll have fun doing it) */"
2008-05-05T12:08:20+00:00,210307318,210306767,1,Lagrandebanquesucre,Talk:Criticism of fractional-reserve banking,"/* Please, I don't want to fight you (but I will if I have to, and I'll have fun doing it) */"
2008-05-05T12:04:08+00:00,210306767,210300330,1,Lagrandebanquesucre,Talk:Criticism of fractional-reserve banking,"/* Please, I don't want to fight you (but I will if I have to, and I'll have fun doing it) */"
2008-05-05T11:17:29+00:00,210300330,210299267,1,Lagrandebanquesucre,Talk:Criticism of fractional-reserve banking,"/* Please, I don't want to fight you (but I will if I have to, and I'll have fun doing it) */"
2008-05-05T11:10:18+00:00,210299267,210287083,1,Lagrandebanquesucre,Talk:Criticism of fractional-reserve banking,"/* Please, I don't want to fight you (but I will if I have to, and I'll have fun doing it) */"
2008-05-05T09:34:53+00:00,210287083,210286719,1,Lagrandebanquesucre,Talk:Criticism of fractional-reserve banking,"/* Please, I don't want to fight you (but I will if I have to, and I'll have fun doing it) */"
2008-05-05T09:31:57+00:00,210286719,210286437,1,Lagrandebanquesucre,Talk:Criticism of fractional-reserve banking,"/* Please, I don't want to fight you (but I will if I have to, and I'll have fun doing it) */"
2008-05-05T09:29:18+00:00,210286437,210286234,1,Lagrandebanquesucre,Talk:Criticism of fractional-reserve banking,"/* Please, I don't want to fight you (but I will if I have to, and I'll have fun doing it) */"
2008-05-05T09:27:33+00:00,210286234,210286012,1,Lagrandebanquesucre,Talk:Criticism of fractional-reserve banking,"/* Please, I don't want to fight you (but I will if I have to, and I'll have fun doing it) */"
2008-05-05T09:25:32+00:00,210286012,210285674,1,Lagrandebanquesucre,Talk:Criticism of fractional-reserve banking,"/* Please, I don't want to fight you (but I will if I have to, and I'll have fun doing it) */"
2008-05-05T09:22:50+00:00,210285674,210285480,1,Lagrandebanquesucre,Talk:Criticism of fractional-reserve banking,"/* Please, I don't want to fight you (but I will if I have to, and I'll have fun doing it) */"
2008-05-05T09:21:11+00:00,210285480,210285119,1,Lagrandebanquesucre,Talk:Criticism of fractional-reserve banking,"/* Please, I don't want to fight you (but I will if I have to, and I'll have fun doing it) */"
2008-05-05T09:18:12+00:00,210285119,210284962,1,Lagrandebanquesucre,Talk:Criticism of fractional-reserve banking,"/* Please, I don't want to fight you (but I will if I have to, and I'll have fun doing it) */"
2008-05-05T09:16:38+00:00,210284962,210284827,1,Lagrandebanquesucre,Talk:Criticism of fractional-reserve banking,"/* Please, I don't want to fight you (but I will if I have to, and I'll have fun doing it) */"
2008-05-05T09:15:15+00:00,210284827,210277836,1,Lagrandebanquesucre,Talk:Criticism of fractional-reserve banking,"/* Please, I don't want to fight you (but I will if I have to, and I'll have fun doing it) */"
2008-05-05T08:18:45+00:00,210278417,210276467,1,Lagrandebanquesucre,Criticism of fractional-reserve banking,"Sorry, had some free time.  Lots of very minor reference additions and clean up.  All relatively minor and inoffensive."
2008-05-05T08:13:43+00:00,210277836,210277654,1,Lagrandebanquesucre,Talk:Criticism of fractional-reserve banking,"/* Please, I don't want to fight you (but I will if I have to, and I'll have fun doing it) */"
2008-05-05T08:11:56+00:00,210277654,210275093,1,Lagrandebanquesucre,Talk:Criticism of fractional-reserve banking,"/* Please, I don't want to fight you (but I will if I have to, and I'll have fun doing it) */"
2008-05-05T08:00:27+00:00,210276467,210276371,1,Lagrandebanquesucre,Criticism of fractional-reserve banking,/* Basic debate */
2008-05-05T07:59:48+00:00,210276371,210276098,1,Lagrandebanquesucre,Criticism of fractional-reserve banking,/* Basic debate */
2008-05-05T07:57:25+00:00,210276098,210264283,1,Lagrandebanquesucre,Criticism of fractional-reserve banking,/* Basic debate */
2008-05-05T07:48:32+00:00,210275093,210274341,1,Lagrandebanquesucre,Talk:Criticism of fractional-reserve banking,"/* Please, I don't want to fight you (but I will if I have to, and I'll have fun doing it) */"
2008-05-05T07:41:57+00:00,210274341,210274217,1,Lagrandebanquesucre,Talk:Criticism of fractional-reserve banking,"/* Please, I don't want to fight you (but I will if I have to, and I'll have fun doing it) */"
2008-05-05T07:40:44+00:00,210274217,210274008,1,Lagrandebanquesucre,Talk:Criticism of fractional-reserve banking,"/* Please, I don't want to fight you (but I will if I have to, and I'll have fun doing it) */"
2008-05-05T07:38:41+00:00,210274008,210273900,1,Lagrandebanquesucre,Talk:Criticism of fractional-reserve banking,"/* Please, I don't want to fight you (but I will if I have to, and I'll have fun doing it) */"
2008-05-05T07:37:42+00:00,210273900,210273084,1,Lagrandebanquesucre,Talk:Criticism of fractional-reserve banking,"/* Please, I don't want to fight you (but I will if I have to, and I'll have fun doing it) */"
2008-05-05T07:30:22+00:00,210273084,210272654,1,Lagrandebanquesucre,Talk:Criticism of fractional-reserve banking,"/* Please, I don't want to fight you (but I will if I have to, and I'll have fun doing it) */"
2008-05-05T07:26:15+00:00,210272654,210272256,1,Lagrandebanquesucre,Talk:Criticism of fractional-reserve banking,"/* Please, I don't want to fight you (but I will if I have to, and I'll have fun doing it) */"
2008-05-05T07:25:21+00:00,210272553,209278835,1,Lagrandebanquesucre,United States Note,
2008-05-05T07:23:06+00:00,210272256,210272011,1,Lagrandebanquesucre,Talk:Criticism of fractional-reserve banking,"/* Please, I don't want to fight you (but I will if I have to, and I'll have fun doing it) */"
2008-05-05T07:21:16+00:00,210272011,210271801,1,Lagrandebanquesucre,Talk:Criticism of fractional-reserve banking,"/* Please, I don't want to fight you (but I will if I have to, and I'll have fun doing it) */"
2008-05-05T07:19:23+00:00,210271801,210271507,1,Lagrandebanquesucre,Talk:Criticism of fractional-reserve banking,"/* Please, I don't want to fight you (but I will if I have to, and I'll have fun doing it) */"
2008-05-05T07:16:35+00:00,210271507,210270970,1,Lagrandebanquesucre,Talk:Criticism of fractional-reserve banking,"/* Please, I don't want to fight you (but I will if I have to, and I'll have fun doing it) */"
2008-05-05T07:11:02+00:00,210270970,210270449,1,Lagrandebanquesucre,Talk:Criticism of fractional-reserve banking,"/* Please, I don't want to fight you (but I will if I have to, and I'll have fun doing it) */"
2008-05-05T07:05:17+00:00,210270449,210270369,1,Lagrandebanquesucre,Talk:Criticism of fractional-reserve banking,"/* Please, I don't want to fight you (but I will if I have to, and I'll have fun doing it) */"
2008-05-05T07:04:17+00:00,210270369,210270267,1,Lagrandebanquesucre,Talk:Criticism of fractional-reserve banking,"/* Please, I don't want to fight you (but I will if I have to, and I'll have fun doing it) */"
2008-05-05T07:03:21+00:00,210270267,210269991,1,Lagrandebanquesucre,Talk:Criticism of fractional-reserve banking,"/* Please, I don't want to fight you (but I will if I have to, and I'll have fun doing it) */"
2008-05-05T07:00:48+00:00,210269991,210269753,1,Lagrandebanquesucre,Talk:Criticism of fractional-reserve banking,"/* Please, I don't want to fight you (but I will if I have to, and I'll have fun doing it) */"
2008-05-05T06:58:21+00:00,210269753,210269572,1,Lagrandebanquesucre,Talk:Criticism of fractional-reserve banking,"/* Please, I don't want to fight you (but I will if I have to, and I'll have fun doing it) */"
2008-05-05T06:56:12+00:00,210269572,210269429,1,Lagrandebanquesucre,Talk:Criticism of fractional-reserve banking,"/* Please, I don't want to fight you (but I will if I have to, and I'll have fun doing it) */"
2008-05-05T06:54:50+00:00,210269429,210269071,1,Lagrandebanquesucre,Talk:Criticism of fractional-reserve banking,"/* Please, I don't want to fight you (but I will if I have to, and I'll have fun doing it) */"
2008-05-05T06:50:52+00:00,210269071,210265583,1,Lagrandebanquesucre,Talk:Criticism of fractional-reserve banking,"/* Please, I don't want to fight you (but I will if I have to, and I'll have fun doing it) */"
2008-05-05T06:14:24+00:00,210265583,210265363,1,Lagrandebanquesucre,Talk:Criticism of fractional-reserve banking,"/* Please, I don't want to fight you (but I will if I have to, and I'll have fun doing it) */"
2008-05-05T06:12:09+00:00,210265363,210265080,1,Lagrandebanquesucre,Talk:Criticism of fractional-reserve banking,"/* Please, I don't want to fight you (but I will if I have to, and I'll have fun doing it) */"
2008-05-05T06:09:14+00:00,210265080,210263718,1,Lagrandebanquesucre,Talk:Criticism of fractional-reserve banking,"/* Please, I don't want to fight you (but I will if I have to, and I'll have fun doing it) */"
2008-05-05T06:01:29+00:00,210264283,210237231,1,Lagrandebanquesucre,Criticism of fractional-reserve banking,"Comment on POV in last section removed, based on comments in talk page.  Reference has been provided."
2008-05-05T05:56:09+00:00,210263718,210244206,1,Lagrandebanquesucre,Talk:Criticism of fractional-reserve banking,"/* Please, I don't want to fight you (but I will if I have to, and I'll have fun doing it) */"
2008-05-05T03:15:57+00:00,210244206,210244106,1,Lagrandebanquesucre,Talk:Criticism of fractional-reserve banking,"/* Please, I don't want to fight you (but I will if I have to, and I'll have fun doing it) */"
2008-05-05T03:15:22+00:00,210244106,210243849,1,Lagrandebanquesucre,Talk:Criticism of fractional-reserve banking,"/* Please, I don't want to fight you (but I will if I have to, and I'll have fun doing it) */"
2008-05-05T03:13:24+00:00,210243849,210243095,1,Lagrandebanquesucre,Talk:Criticism of fractional-reserve banking,
2008-05-05T03:07:43+00:00,210243095,210242807,1,Lagrandebanquesucre,Talk:Criticism of fractional-reserve banking,"/* Please, I don't want to fight you (but I will if I have to, and I'll have fun doing it) */"
2008-05-05T03:05:41+00:00,210242807,210241904,1,Lagrandebanquesucre,Talk:Criticism of fractional-reserve banking,"/* Please, I don't want to fight you (but I will if I have to, and I'll have fun doing it) */"
2008-05-05T02:59:13+00:00,210241904,210241791,1,Lagrandebanquesucre,Talk:Criticism of fractional-reserve banking,"/* Please, I don't want to fight you (but I will if I have to, and I'll have fun doing it) */"
2008-05-05T02:58:22+00:00,210241791,210241713,1,Lagrandebanquesucre,Talk:Criticism of fractional-reserve banking,"/* Please, I don't want to fight you (but I will if I have to, and I'll have fun doing it) */"
2008-05-05T02:57:52+00:00,210241713,210240795,1,Lagrandebanquesucre,Talk:Criticism of fractional-reserve banking,"/* Please, I don't want to fight you (but I will if I have to, and I'll have fun doing it) */"
2008-05-05T02:50:25+00:00,210240636,210137982,1,Lagrandebanquesucre,Talk:Criticism of fractional-reserve banking,"/* Please, I don't want to fight you (but I will if I have to, and I'll have fun doing it) */"
2008-05-05T02:28:33+00:00,210237231,210070560,1,Lagrandebanquesucre,Criticism of fractional-reserve banking,
2008-05-04T08:44:59+00:00,210070560,210070471,1,Lagrandebanquesucre,Criticism of fractional-reserve banking,/* Basic debate */
2008-05-04T08:44:04+00:00,210070471,210070355,1,Lagrandebanquesucre,Criticism of fractional-reserve banking,/* Basic debate */
2008-05-04T08:43:05+00:00,210070355,210058997,1,Lagrandebanquesucre,Criticism of fractional-reserve banking,
2008-05-04T07:07:26+00:00,210060969,210058664,1,Lagrandebanquesucre,Talk:Criticism of fractional-reserve banking,"/* Please, I don't want to fight you (but I will if I have to, and I'll have fun doing it) */"
2008-05-04T06:51:06+00:00,210058997,210057283,1,Lagrandebanquesucre,Criticism of fractional-reserve banking,/* Basic debate */
2008-05-04T06:47:25+00:00,210058664,210058579,1,Lagrandebanquesucre,Talk:Criticism of fractional-reserve banking,"/* Please, I don't want to fight you (but I will if I have to, and I'll have fun doing it) */"
2008-05-04T06:46:37+00:00,210058579,210051494,1,Lagrandebanquesucre,Talk:Criticism of fractional-reserve banking,"/* Please, I don't want to fight you (but I will if I have to, and I'll have fun doing it) */"
2008-05-04T06:34:55+00:00,210057283,210057081,1,Lagrandebanquesucre,Criticism of fractional-reserve banking,/* Conventional economic analysis */
2008-05-04T06:33:16+00:00,210057081,210056895,1,Lagrandebanquesucre,Criticism of fractional-reserve banking,Added explanation based on Gregalton's comments on the talk page - CEA apparently treats frb as independent of the currency regime.  So be it.
2008-05-04T06:31:54+00:00,210056895,210051759,1,Lagrandebanquesucre,Criticism of fractional-reserve banking,/* Conventional economic analysis */
2008-05-04T05:51:37+00:00,210051759,210048149,1,Lagrandebanquesucre,Criticism of fractional-reserve banking,
2008-05-04T05:49:12+00:00,210051494,210047326,1,Lagrandebanquesucre,Talk:Criticism of fractional-reserve banking,"/* Please, I don't want to fight you (but I will if I have to, and I'll have fun doing it) */"
2008-05-04T05:23:36+00:00,210048149,210043051,1,Lagrandebanquesucre,Criticism of fractional-reserve banking,
2008-05-04T05:15:22+00:00,210047326,210046166,1,Lagrandebanquesucre,Talk:Criticism of fractional-reserve banking,"/* Please, I don't want to fight you (but I will if I have to, and I'll have fun doing it) */"
2008-05-04T05:03:29+00:00,210046166,210045853,1,Lagrandebanquesucre,Talk:Criticism of fractional-reserve banking,"/* Please, I don't want to fight you (but I will if I have to, and I'll have fun doing it) */"
2008-05-04T05:00:55+00:00,210045853,210045687,1,Lagrandebanquesucre,Talk:Criticism of fractional-reserve banking,"/* Please, I don't want to fight you (but I will if I have to, and I'll have fun doing it) */"
2008-05-04T04:59:52+00:00,210045687,210044824,1,Lagrandebanquesucre,Talk:Criticism of fractional-reserve banking,
2008-05-04T04:52:35+00:00,210044824,210044628,1,Lagrandebanquesucre,Talk:Criticism of fractional-reserve banking,"/* Please, I don't want to fight you (but I will if I have to, and I'll have fun doing it) */"
2008-05-04T04:51:09+00:00,210044628,210043872,1,Lagrandebanquesucre,Talk:Criticism of fractional-reserve banking,"/* Please, I don't want to fight you (but I will if I have to, and I'll have fun doing it) */"
2008-05-04T04:45:42+00:00,210043872,210041971,1,Lagrandebanquesucre,Talk:Criticism of fractional-reserve banking,"/* Please, I don't want to fight you (but I will if I have to, and I'll have fun doing it) */"
2008-05-04T04:40:00+00:00,210043051,210042699,1,Lagrandebanquesucre,Criticism of fractional-reserve banking,/* Basic nature of system */
2008-05-04T04:37:05+00:00,210042699,210039298,1,Lagrandebanquesucre,Criticism of fractional-reserve banking,Added Zarlenga as a cite
2008-05-04T04:30:31+00:00,210041971,210040402,1,Lagrandebanquesucre,Talk:Criticism of fractional-reserve banking,"/* ""Government-issued fiat currency can be issued debt-free"" - Dubious/Discuss */"
2008-05-04T04:17:31+00:00,210040261,210039842,1,Lagrandebanquesucre,Talk:Criticism of fractional-reserve banking,"/* Please, I don't want to fight you (but I will if I have to, and I'll have fun doing it) */"
2008-05-04T04:14:33+00:00,210039842,210039155,1,Lagrandebanquesucre,Talk:Criticism of fractional-reserve banking,"/* Please, I don't want to fight you (but I will if I have to, and I'll have fun doing it) */"
2008-05-04T04:09:47+00:00,210039298,209904221,1,Lagrandebanquesucre,Criticism of fractional-reserve banking,Revert.  Please see very detailed explanation on the talk page.
2008-05-04T04:08:31+00:00,210039155,210038791,1,Lagrandebanquesucre,Talk:Criticism of fractional-reserve banking,"/* Please, I don't want to fight you (but I will if I have to, and I'll have fun doing it) */"
2008-05-04T04:05:42+00:00,210038791,210038618,1,Lagrandebanquesucre,Talk:Criticism of fractional-reserve banking,"/* Please, I don't want to fight you (but I will if I have to, and I'll have fun doing it) */"
2008-05-04T04:04:23+00:00,210038618,210037918,1,Lagrandebanquesucre,Talk:Criticism of fractional-reserve banking,"/* Please, I don't want to fight you (but I will if I have to, and I'll have fun doing it) */"
2008-05-04T03:59:22+00:00,210037918,210037592,1,Lagrandebanquesucre,Talk:Criticism of fractional-reserve banking,"/* Please, I don't want to fight you (but I will if I have to, and I'll have fun doing it) */"
2008-05-04T03:56:48+00:00,210037592,210037506,1,Lagrandebanquesucre,Talk:Criticism of fractional-reserve banking,"/* Please, I don't want to fight you (but I will if I have to, and I'll have fun doing it) */"
2008-05-04T03:56:13+00:00,210037506,210037336,1,Lagrandebanquesucre,Talk:Criticism of fractional-reserve banking,"/* Please, I don't want to fight you (but I will if I have to, and I'll have fun doing it) */"
2008-05-04T03:54:53+00:00,210037336,210037148,1,Lagrandebanquesucre,Talk:Criticism of fractional-reserve banking,"/* Please, I don't want to fight you (but I will if I have to, and I'll have fun doing it) */"
2008-05-04T03:53:44+00:00,210037148,209904014,1,Lagrandebanquesucre,Talk:Criticism of fractional-reserve banking,"/* Please, I don't want to fight you (but I will if I have to, and I'll have fun doing it) */"
2008-05-03T12:59:48+00:00,209895601,209895538,1,Lagrandebanquesucre,Talk:Criticism of fractional-reserve banking,"/* Please, I don't want to fight you (but I will if I have to, and I'll have fun doing it) */"
2008-05-03T12:59:21+00:00,209895538,209890227,1,Lagrandebanquesucre,Talk:Criticism of fractional-reserve banking,"/* Please, I don't want to fight you (but I will if I have to, and I'll have fun doing it) */"
2008-05-03T12:13:53+00:00,209890227,209889091,1,Lagrandebanquesucre,Talk:Criticism of fractional-reserve banking,"/* Please, I don't want to fight you (but I will if I have to...) */"
2008-05-03T12:04:39+00:00,209889091,209888811,1,Lagrandebanquesucre,Talk:Criticism of fractional-reserve banking,"/* Please, I don't want to fight you */"
2008-05-03T12:02:49+00:00,209888811,209888624,1,Lagrandebanquesucre,Talk:Criticism of fractional-reserve banking,/* Clean up of Cites in Conventional Analysis */
2008-05-03T12:01:13+00:00,209888624,209887993,1,Lagrandebanquesucre,Talk:Criticism of fractional-reserve banking,"/* ""Government-issued fiat currency can be issued debt-free"" - Dubious/Discuss */"
2008-05-03T11:59:41+00:00,209888437,209863236,1,Lagrandebanquesucre,Criticism of fractional-reserve banking,/* Basic nature of system */
2008-05-03T11:55:13+00:00,209887993,209887757,1,Lagrandebanquesucre,Talk:Criticism of fractional-reserve banking,"/* Please, I don't want to fight you */"
2008-05-03T11:52:53+00:00,209887757,209863189,1,Lagrandebanquesucre,Talk:Criticism of fractional-reserve banking,"/* Please, I don't want to fight you */"
2008-05-03T07:35:08+00:00,209863189,209863002,1,Lagrandebanquesucre,Talk:Criticism of fractional-reserve banking,"/* Please, I don't want to fight you */"
2008-05-03T07:33:10+00:00,209863002,209862889,1,Lagrandebanquesucre,Talk:Criticism of fractional-reserve banking,"/* Please, I don't want to fight you */"
2008-05-03T07:32:00+00:00,209862889,209856191,1,Lagrandebanquesucre,Talk:Criticism of fractional-reserve banking,"/* Please, I don't want to fight you */"
2008-05-03T06:23:26+00:00,209856191,209856069,1,Lagrandebanquesucre,Talk:Criticism of fractional-reserve banking,"/* ""Government-issued fiat currency can be issued debt-free"" - Dubious/Discuss */"
2008-05-03T06:22:20+00:00,209856069,209855986,1,Lagrandebanquesucre,Talk:Criticism of fractional-reserve banking,"/* ""Government-issued fiat currency can be issued debt-free"" - Dubious/Discuss */"
2008-05-03T06:21:37+00:00,209855986,209855929,1,Lagrandebanquesucre,Talk:Criticism of fractional-reserve banking,"/* ""Government-issued fiat currency can be issued debt-free"" - Dubious/Discuss= */"
2008-05-03T06:21:04+00:00,209855929,209855844,1,Lagrandebanquesucre,Talk:Criticism of fractional-reserve banking,
2008-05-03T06:20:08+00:00,209855844,209855600,1,Lagrandebanquesucre,Talk:Criticism of fractional-reserve banking,
2008-05-03T06:17:33+00:00,209855600,209855103,1,Lagrandebanquesucre,Talk:Criticism of fractional-reserve banking,/* Friedman et al claims */
2008-05-03T06:11:22+00:00,209854996,209854029,1,Lagrandebanquesucre,Talk:Criticism of fractional-reserve banking,
2008-05-03T06:05:37+00:00,209854416,209853443,1,Lagrandebanquesucre,Criticism of fractional-reserve banking,
2008-05-03T06:01:52+00:00,209854029,209853131,1,Lagrandebanquesucre,Talk:Criticism of fractional-reserve banking,/* Friedman et al claims */
2008-05-03T05:56:15+00:00,209853443,209684221,1,Lagrandebanquesucre,Criticism of fractional-reserve banking,First sentence was misleading and inaccurate.  Sentence is now more accurate.  See talk page discussion.
2008-05-03T05:53:14+00:00,209853131,209853067,1,Lagrandebanquesucre,Talk:Criticism of fractional-reserve banking,/* Friedman et al claims */
2008-05-03T05:52:41+00:00,209853067,209852696,1,Lagrandebanquesucre,Talk:Criticism of fractional-reserve banking,/* Friedman et al claims */
2008-05-03T05:49:26+00:00,209852696,209683315,1,Lagrandebanquesucre,Talk:Criticism of fractional-reserve banking,/* Friedman et al claims */
2008-05-02T12:54:40+00:00,209683315,209682999,1,Lagrandebanquesucre,Talk:Criticism of fractional-reserve banking,/* Friedman et al claims */
2008-05-02T12:52:07+00:00,209682930,209682554,1,Lagrandebanquesucre,Talk:Criticism of fractional-reserve banking,/* Friedman et al claims */
2008-05-02T12:49:22+00:00,209682554,209670430,1,Lagrandebanquesucre,Talk:Criticism of fractional-reserve banking,/* Friedman et al claims */
2008-05-02T11:14:07+00:00,209670430,209670267,1,Lagrandebanquesucre,Talk:Criticism of fractional-reserve banking,
2008-05-02T11:12:24+00:00,209670267,209396767,1,Lagrandebanquesucre,Talk:Criticism of fractional-reserve banking,/* Friedman et al claims */
2008-05-02T10:27:16+00:00,209665129,209664816,1,Lagrandebanquesucre,Criticism of fractional-reserve banking,
2008-05-02T10:24:16+00:00,209664816,209664662,1,Lagrandebanquesucre,Criticism of fractional-reserve banking,
2008-05-02T10:22:41+00:00,209664662,209664439,1,Lagrandebanquesucre,Criticism of fractional-reserve banking,
2008-05-02T10:20:29+00:00,209664439,209664176,1,Lagrandebanquesucre,Criticism of fractional-reserve banking,
2008-05-02T10:18:01+00:00,209664176,209661712,1,Lagrandebanquesucre,Criticism of fractional-reserve banking,"Cleaned up first sentence.  Article is not about frb as such, but about unfettered, govt-protected and central bank supported frb"
2008-05-02T09:55:10+00:00,209661712,209647173,1,Lagrandebanquesucre,Criticism of fractional-reserve banking,
2008-05-02T07:18:49+00:00,209647173,209647117,1,Lagrandebanquesucre,Criticism of fractional-reserve banking,/* Basic nature of system */
2008-05-02T07:18:09+00:00,209647117,209646818,1,Lagrandebanquesucre,Criticism of fractional-reserve banking,/* Basic nature of system */
2008-05-02T07:14:49+00:00,209646818,209646709,1,Lagrandebanquesucre,Criticism of fractional-reserve banking,Second sentence was sitting there without support or verification for months.  It was superfluous in any case.  Deleted.
2008-05-02T07:13:16+00:00,209646709,209201416,1,Lagrandebanquesucre,Criticism of fractional-reserve banking,
2008-05-01T05:04:14+00:00,209396767,209360520,1,Lagrandebanquesucre,Talk:Criticism of fractional-reserve banking,/* Adding a few non-mainstream mentions */
2008-05-01T01:01:37+00:00,209360520,209201367,1,Lagrandebanquesucre,Talk:Criticism of fractional-reserve banking,
2008-04-30T07:05:46+00:00,209182020,209180146,1,Lagrandebanquesucre,Talk:Criticism of fractional-reserve banking,/* Adding a few non-mainstream mentions */
2008-04-30T07:01:18+00:00,209181632,209181024,1,Lagrandebanquesucre,Criticism of fractional-reserve banking,
2008-04-30T06:55:11+00:00,209181024,209180547,1,Lagrandebanquesucre,Criticism of fractional-reserve banking,
2008-04-30T06:49:58+00:00,209180547,209180495,1,Lagrandebanquesucre,Criticism of fractional-reserve banking,/* Basic debate */
2008-04-30T06:49:23+00:00,209180495,209177580,1,Lagrandebanquesucre,Criticism of fractional-reserve banking,
2008-04-30T06:45:30+00:00,209180146,209179128,1,Lagrandebanquesucre,Talk:Criticism of fractional-reserve banking,/* Adding a few non-mainstream mentions */
2008-04-30T06:34:57+00:00,209179128,209173204,1,Lagrandebanquesucre,Talk:Criticism of fractional-reserve banking,/* Adding a few non-mainstream mentions */
2008-04-30T06:17:22+00:00,209177580,209177490,1,Lagrandebanquesucre,Criticism of fractional-reserve banking,
2008-04-30T06:16:28+00:00,209177490,209177441,1,Lagrandebanquesucre,Criticism of fractional-reserve banking,
2008-04-30T06:15:42+00:00,209177441,209177048,1,Lagrandebanquesucre,Criticism of fractional-reserve banking,
2008-04-30T06:11:20+00:00,209177048,209177004,1,Lagrandebanquesucre,Criticism of fractional-reserve banking,/* Basic nature of system */
2008-04-30T06:10:50+00:00,209177004,209176622,1,Lagrandebanquesucre,Criticism of fractional-reserve banking,
2008-04-30T06:07:04+00:00,209176622,209176291,1,Lagrandebanquesucre,Criticism of fractional-reserve banking,
2008-04-30T06:03:32+00:00,209176291,209173268,1,Lagrandebanquesucre,Criticism of fractional-reserve banking,
2008-04-30T04:18:30+00:00,209164875,209164832,1,Lagrandebanquesucre,Talk:Criticism of fractional-reserve banking,/* Adding a few non-mainstream mentions */
2008-04-30T04:18:07+00:00,209164832,209132869,1,Lagrandebanquesucre,Talk:Criticism of fractional-reserve banking,/* Adding a few non-mainstream mentions */
2008-04-30T01:02:39+00:00,209132869,209132645,1,Lagrandebanquesucre,Talk:Criticism of fractional-reserve banking,/* Adding a few non-mainstream mentions */
2008-04-30T01:01:32+00:00,209132645,208944772,1,Lagrandebanquesucre,Talk:Criticism of fractional-reserve banking,
2008-04-30T00:56:55+00:00,209131727,208977675,1,Lagrandebanquesucre,Criticism of fractional-reserve banking,See talk page
2008-04-29T09:07:33+00:00,208958194,208958163,1,Lagrandebanquesucre,Criticism of fractional-reserve banking,
2008-04-29T09:07:08+00:00,208958163,208944091,1,Lagrandebanquesucre,Criticism of fractional-reserve banking,
2008-04-29T06:52:55+00:00,208944772,208897985,1,Lagrandebanquesucre,Talk:Criticism of fractional-reserve banking,
2008-04-29T06:46:19+00:00,208944091,208943369,1,Lagrandebanquesucre,Criticism of fractional-reserve banking,
2008-04-29T06:39:21+00:00,208943369,208934631,1,Lagrandebanquesucre,Criticism of fractional-reserve banking,added a few other critics in the first para
2008-04-29T01:17:25+00:00,208897985,208886798,1,Lagrandebanquesucre,Talk:Criticism of fractional-reserve banking,"/* Should Antal E. Fekete be added as a ""See Also"" Link? */"
2008-04-29T00:46:58+00:00,208891707,206929197,1,Lagrandebanquesucre,Austrian school of economics,/* See also */  ABCT
2008-04-29T00:23:57+00:00,208886798,208879187,1,Lagrandebanquesucre,Talk:Criticism of fractional-reserve banking,"/* Should Antal E. Fekete be added as a ""See Also"" Link? */"
2008-04-28T23:49:17+00:00,208879187,208761069,1,Lagrandebanquesucre,Talk:Criticism of fractional-reserve banking,"/* Should Antal E. Fekete be added as a ""See Also"" Link? */"
2008-04-28T23:44:20+00:00,208878159,208877366,1,Lagrandebanquesucre,Criticism of fractional-reserve banking,Added two Fekete references.  See talk page.
2008-04-28T23:39:24+00:00,208877366,208876528,1,Lagrandebanquesucre,Criticism of fractional-reserve banking,/* Basic nature of system */
2008-04-28T23:35:30+00:00,208876528,208723344,1,Lagrandebanquesucre,Criticism of fractional-reserve banking,/* Basic debate */
2008-04-28T23:30:55+00:00,208875509,208756108,1,Lagrandebanquesucre,User talk:Lagrandebanquesucre,/* Speedy deletion of Antal E Fekete */
2008-04-28T13:58:13+00:00,208751543,208751417,1,Lagrandebanquesucre,Talk:Criticism of fractional-reserve banking,"/* Should Antal E. Fekete be added as a ""See Also"" Link? */"
2008-04-28T13:57:24+00:00,208751417,208751060,1,Lagrandebanquesucre,Talk:Criticism of fractional-reserve banking,"/* Should Antal E. Fekete be added as a ""See Also"" Link? */"
2008-04-28T13:55:16+00:00,208751060,208750386,1,Lagrandebanquesucre,Talk:Criticism of fractional-reserve banking,"/* Should Antal E. Fekete be added as a ""See Also"" Link? */"
2008-04-28T13:51:21+00:00,208750386,208749907,1,Lagrandebanquesucre,Talk:Criticism of fractional-reserve banking,"/* Should Antal E. Fekete be added as a ""See Also"" Link? */"
2008-04-28T13:48:04+00:00,208749907,208749754,1,Lagrandebanquesucre,Talk:Criticism of fractional-reserve banking,Antal E Fekete surely should be added as an EL
2008-04-28T13:47:11+00:00,208749754,208725067,1,Lagrandebanquesucre,Talk:Criticism of fractional-reserve banking,
2008-04-28T10:58:00+00:00,208727722,208440819,1,Lagrandebanquesucre,Credit crunch,
2008-04-28T02:54:19+00:00,208672311,208671894,1,Lagrandebanquesucre,Criticism of fractional-reserve banking,/* See also */
2008-04-28T02:51:56+00:00,208671894,208671337,1,Lagrandebanquesucre,Criticism of fractional-reserve banking,/* See also */
2008-04-28T02:48:28+00:00,208671337,208665451,1,Lagrandebanquesucre,Criticism of fractional-reserve banking,Added Fekete (probably the world's foremost academic critic) as a link
2008-04-28T02:12:20+00:00,208665451,208665183,1,Lagrandebanquesucre,Criticism of fractional-reserve banking,Ditto
2008-04-28T02:10:51+00:00,208665183,208642995,1,Lagrandebanquesucre,Criticism of fractional-reserve banking,"Included cite on the clear use of the term in the House of Lords, as an example of its use."
2008-04-28T01:59:00+00:00,208663042,208073942,1,Lagrandebanquesucre,Talk:Criticism of fractional-reserve banking,/* Why so many deletions? */
2008-04-28T00:07:43+00:00,208642995,208642881,1,Lagrandebanquesucre,Criticism of fractional-reserve banking,/* See also */ (sound money)
2008-04-28T00:06:57+00:00,208642881,208380935,1,Lagrandebanquesucre,Criticism of fractional-reserve banking,"Internal reference - ""sound money"""
2008-04-25T09:35:41+00:00,208073942,208071433,1,Lagrandebanquesucre,Talk:Criticism of fractional-reserve banking,Fair enough...
2008-04-25T08:30:16+00:00,208067765,208067664,1,Lagrandebanquesucre,Talk:Criticism of fractional-reserve banking,/* Vladimir Z. Nuri's academic research paper on Fractional-reserve banking as Economic Parasitism */
2008-04-25T08:29:21+00:00,208067664,208067472,1,Lagrandebanquesucre,Talk:Criticism of fractional-reserve banking,/* Vladimir Z. Nuri's academic research paper on Fractional-reserve banking as Economic Parasitism */
2008-04-25T08:27:28+00:00,208067472,208067407,1,Lagrandebanquesucre,Talk:Criticism of fractional-reserve banking,/* Vladimir Z. Nuri's academic research paper on Fractional-reserve banking as Economic Parasitism */
2008-04-25T08:26:49+00:00,208067407,208067350,1,Lagrandebanquesucre,Talk:Criticism of fractional-reserve banking,/* Vladimir Z. Nuri's academic research paper on Fractional-reserve banking as Economic Parasitism */
2008-04-25T08:26:18+00:00,208067350,207816730,1,Lagrandebanquesucre,Talk:Criticism of fractional-reserve banking,Notable = Subjective assessment of pre-celebrity
2008-04-24T05:23:01+00:00,207788355,207788183,1,Lagrandebanquesucre,Talk:Criticism of fractional-reserve banking,/* Vladimir Z. Nuri's academic research paper on Fractional-reserve banking as Economic Parasitism */
2008-04-24T05:21:48+00:00,207788183,207788058,1,Lagrandebanquesucre,Talk:Criticism of fractional-reserve banking,/* Vladimir Z. Nuri's academic research paper on Fractional-reserve banking as Economic Parasitism */
2008-04-24T05:20:55+00:00,207788058,207786209,1,Lagrandebanquesucre,Talk:Criticism of fractional-reserve banking,/* Vladimir Z. Nuri's academic research paper on Fractional-reserve banking as Economic Parasitism */
2008-04-24T05:07:45+00:00,207786209,207785546,1,Lagrandebanquesucre,Talk:Criticism of fractional-reserve banking,/* Vladimir Z. Nuri's academic research paper on Fractional-reserve banking as Economic Parasitism */
2008-04-24T05:02:50+00:00,207785546,207779160,1,Lagrandebanquesucre,Talk:Criticism of fractional-reserve banking,/* Zladimir Z. Nuri's academic research paper on Fractional-reserve banking as Economic Parasitism */
2008-04-24T05:02:32+00:00,207785498,207785394,1,Lagrandebanquesucre,Criticism of fractional-reserve banking,Added external link - please see talk page
2008-04-24T05:01:51+00:00,207785394,207785250,1,Lagrandebanquesucre,Criticism of fractional-reserve banking,/* External links */
2008-04-24T05:00:55+00:00,207785250,207509462,1,Lagrandebanquesucre,Criticism of fractional-reserve banking,
2008-04-24T04:32:36+00:00,207781041,204780707,1,Lagrandebanquesucre,Monetary reform,
2008-04-24T04:31:33+00:00,207780880,201288726,1,Lagrandebanquesucre,Michael Rowbotham,/* See also */
2008-04-24T04:20:27+00:00,207779160,207779116,1,Lagrandebanquesucre,Talk:Criticism of fractional-reserve banking,/* Zladimir Z. Nuri's academic research paper on Fractional-reserve banking as Economic Parasitism */
2008-04-24T04:20:07+00:00,207779116,207763705,1,Lagrandebanquesucre,Talk:Criticism of fractional-reserve banking,/* Zladimir Z. Nuri's academic research paper on Fractional-reserve banking as Economic Parasitism */
2008-04-24T02:45:39+00:00,207763705,207763591,1,Lagrandebanquesucre,Talk:Criticism of fractional-reserve banking,/* Zladimir Z. Nuri's academic research paper on Fractional-reserve banking as economic parasitism */
2008-04-24T02:45:02+00:00,207763591,207763079,1,Lagrandebanquesucre,Talk:Criticism of fractional-reserve banking,/* Zladimir Z. Nuri's academic research paper on Fractional-reserve banking as economic parasitism */
2008-04-24T02:41:58+00:00,207763079,206680356,1,Lagrandebanquesucre,Talk:Criticism of fractional-reserve banking,
2008-04-22T11:45:35+00:00,207338029,206987745,1,Lagrandebanquesucre,Credit crunch,
2008-04-22T06:07:39+00:00,207300169,206831041,1,Lagrandebanquesucre,Fiat money,/* See also */
2008-04-22T03:52:47+00:00,207283046,207282956,1,Lagrandebanquesucre,Minsky moment,
2008-04-22T03:52:02+00:00,207282956,207282858,1,Lagrandebanquesucre,Minsky moment,
2008-04-22T03:51:21+00:00,207282858,207282795,1,Lagrandebanquesucre,Minsky moment,
2008-04-22T03:50:49+00:00,207282795,207282615,1,Lagrandebanquesucre,Minsky moment,
2008-04-22T03:49:13+00:00,207282615,207282578,1,Lagrandebanquesucre,Minsky moment,
2008-04-22T03:48:54+00:00,207282578,207282285,1,Lagrandebanquesucre,Minsky moment,Minor edits/clarifications
2008-04-22T03:46:45+00:00,207282285,172678153,1,Lagrandebanquesucre,Minsky moment,
2008-04-22T03:44:42+00:00,207282039,207281938,1,Lagrandebanquesucre,Austrian business cycle theory,/* See also */
2008-04-22T03:43:55+00:00,207281938,207281880,1,Lagrandebanquesucre,Austrian business cycle theory,/* See also */
2008-04-22T03:43:25+00:00,207281880,200344252,1,Lagrandebanquesucre,Austrian business cycle theory,/* See also */
2008-04-22T03:42:44+00:00,207281799,207281695,1,Lagrandebanquesucre,Credit tightening,Added ABCT to the links
2008-04-22T03:41:51+00:00,207281695,207281638,1,Lagrandebanquesucre,Credit tightening,Minor clarifications/edits
2008-04-22T03:41:25+00:00,207281638,207281327,1,Lagrandebanquesucre,Credit tightening,
2008-04-22T03:39:01+00:00,207281327,207280972,1,Lagrandebanquesucre,Credit tightening,
2008-04-22T03:36:17+00:00,207280972,197711561,1,Lagrandebanquesucre,Credit tightening,"Merge request deleted as per ""credit crunch"" talk page discussion."
2008-04-22T01:29:39+00:00,207260313,206530257,1,Lagrandebanquesucre,Gold standard,/* Advocates of a renewed gold standard */
2008-04-20T23:27:16+00:00,206987745,206987693,1,Lagrandebanquesucre,Credit crunch,
2008-04-20T23:26:57+00:00,206987693,206863907,1,Lagrandebanquesucre,Credit crunch,
2008-04-20T11:03:50+00:00,206863907,206856852,1,Lagrandebanquesucre,Credit crunch,
2008-04-20T07:40:50+00:00,206846062,206694326,1,Lagrandebanquesucre,Credit crunch,
2008-04-19T12:43:04+00:00,206680356,206680281,1,Lagrandebanquesucre,Talk:Criticism of fractional-reserve banking,"/* ""Money as Debt"" as an External Link */"
2008-04-19T12:42:29+00:00,206680281,206680209,1,Lagrandebanquesucre,Talk:Criticism of fractional-reserve banking,"/* ""Money as Debt"" as an External Link */"
2008-04-19T12:41:57+00:00,206680209,206680013,1,Lagrandebanquesucre,Talk:Criticism of fractional-reserve banking,"/* ""Money as Debt"" as an External Link */"
2008-04-19T12:40:05+00:00,206680013,206679565,1,Lagrandebanquesucre,Talk:Criticism of fractional-reserve banking,"/* ""Money as Debt"" as an External Link */"
2008-04-19T12:36:24+00:00,206679565,206184450,1,Lagrandebanquesucre,Talk:Criticism of fractional-reserve banking,"/* ""Money as Debt"" as an External Link */"
2008-04-17T00:20:20+00:00,206138175,204982184,1,Lagrandebanquesucre,Talk:Milton Friedman,/* Naomi Klein */
2008-04-15T09:01:00+00:00,205748977,205523889,1,Lagrandebanquesucre,Credit crunch,
2008-04-13T01:09:41+00:00,205237776,205180016,1,Lagrandebanquesucre,Credit crunch,
2008-04-12T09:48:56+00:00,205098849,205098647,1,Lagrandebanquesucre,Criticism of fractional-reserve banking,"Pardon moi, spelling...my English is ...how do you say...merde"
2008-04-12T09:46:49+00:00,205098647,205098177,1,Lagrandebanquesucre,Criticism of fractional-reserve banking,"Pardonnez-moi, I added ""money-man"" Freidman as an internal link within WP"
2008-04-12T09:41:45+00:00,205098177,205098057,1,Lagrandebanquesucre,Criticism of fractional-reserve banking,Milton Freidman clearly was a critique although the precise nature of the criticism is open to dispute.  Please see talk page.
2008-04-12T09:40:40+00:00,205098057,202720747,1,Lagrandebanquesucre,Criticism of fractional-reserve banking,
2008-04-12T09:25:18+00:00,205096610,205096171,1,Lagrandebanquesucre,Talk:Criticism of fractional-reserve banking,"/* ""Money as Debt"" as an External Link */"
2008-04-12T09:19:53+00:00,205096171,204673076,1,Lagrandebanquesucre,Talk:Criticism of fractional-reserve banking,"/* ""Money as Debt"" as an External Link */"
2008-04-10T11:53:27+00:00,204673076,204672323,1,Lagrandebanquesucre,Talk:Criticism of fractional-reserve banking,"/* ""Money as Debt"" as an External Link */"
2008-04-10T11:47:08+00:00,204672323,204672166,1,Lagrandebanquesucre,Talk:Criticism of fractional-reserve banking,"/* ""Money as Debt"" as an External Link */"
2008-04-10T11:45:43+00:00,204672166,204671642,1,Lagrandebanquesucre,Talk:Criticism of fractional-reserve banking,"/* ""Money as Debt"" as an External Link */"
2008-04-10T11:41:20+00:00,204671642,204671337,1,Lagrandebanquesucre,Talk:Criticism of fractional-reserve banking,"/* ""Money as Debt"" as an External Link */"
2008-04-10T11:38:45+00:00,204671337,204637809,1,Lagrandebanquesucre,Talk:Criticism of fractional-reserve banking,"/* ""Money as Debt"" as an External Link */"
2008-04-10T06:25:35+00:00,204636791,204636668,1,Lagrandebanquesucre,Talk:Criticism of fractional-reserve banking,"/* ""Money as Debt"" as an External Link */"
2008-04-10T06:24:31+00:00,204636668,204636497,1,Lagrandebanquesucre,Talk:Criticism of fractional-reserve banking,"/* ""Money as Debt"" as an External Link */"
2008-04-10T06:23:01+00:00,204636497,204636321,1,Lagrandebanquesucre,Talk:Criticism of fractional-reserve banking,
2008-04-10T06:21:22+00:00,204636321,204434728,1,Lagrandebanquesucre,Talk:Criticism of fractional-reserve banking,"/* ""Money as Debt"" as an External Link */"
2008-04-09T05:29:42+00:00,204391506,204391408,1,Lagrandebanquesucre,Talk:Criticism of fractional-reserve banking,"/* ""Money as Debt"" as an External Link */"
2008-04-09T05:28:53+00:00,204391408,204374963,1,Lagrandebanquesucre,Talk:Criticism of fractional-reserve banking,
2008-04-09T03:29:55+00:00,204374963,204374826,1,Lagrandebanquesucre,Talk:Criticism of fractional-reserve banking,"/* ""Money as Debt"" as an External Link */"
2008-04-09T03:29:08+00:00,204374826,204373789,1,Lagrandebanquesucre,Talk:Criticism of fractional-reserve banking,"/* ""Money as Debt"" as an External Link */"
2008-04-09T03:22:20+00:00,204373789,204373684,1,Lagrandebanquesucre,Talk:Criticism of fractional-reserve banking,"/* ""Money as Debt"" as an External Link */"
2008-04-09T03:21:44+00:00,204373684,204372533,1,Lagrandebanquesucre,Talk:Criticism of fractional-reserve banking,"/* ""Money as Debt"" as an External Link */"
2008-04-09T03:13:45+00:00,204372533,204372290,1,Lagrandebanquesucre,Talk:Criticism of fractional-reserve banking,"/* ""Money as Debt"" as an External Link */"
2008-04-09T03:12:13+00:00,204372290,204371499,1,Lagrandebanquesucre,Talk:Criticism of fractional-reserve banking,"/* ""Money as Debt"" as an External Link */"
2008-04-09T03:07:26+00:00,204371499,204371252,1,Lagrandebanquesucre,Talk:Criticism of fractional-reserve banking,"/* ""Money as Debt"" as an External Link */"
2008-04-07T23:39:06+00:00,204102761,204008224,1,Lagrandebanquesucre,Credit crunch,
2008-04-07T06:57:26+00:00,203933639,203186944,1,Lagrandebanquesucre,Fractional-reserve banking,/* See also */
2008-04-02T03:57:02+00:00,202720747,202296961,1,Lagrandebanquesucre,Criticism of fractional-reserve banking,"Added ABCT as an internal link, as this is related to the Rowbothm thesis and is a similar critique regarding central banking/central planning"
2008-03-16T08:40:59+00:00,198592141,198592096,1,Lagrandebanquesucre,Talk:Criticism of fractional-reserve banking,"/* ""Money as Debt"" as an External Link */"
2008-03-16T08:40:29+00:00,198592096,198367845,1,Lagrandebanquesucre,Talk:Criticism of fractional-reserve banking,
2008-03-16T08:24:12+00:00,198590678,198006673,1,Lagrandebanquesucre,Criticism of fractional-reserve banking,"Austrian School added as a ""See Also"" as this appears to refer to Austrian Economic theory.  Money as Debt reinstated as an External Link.  Please see talk page for explanation."
2008-03-15T07:18:24+00:00,198367845,198366032,1,Lagrandebanquesucre,Talk:Criticism of fractional-reserve banking,/* Why so many deletions? */
2008-03-15T06:58:22+00:00,198366032,198300502,1,Lagrandebanquesucre,Talk:Criticism of fractional-reserve banking,
2008-10-10T05:31:29+00:00,244309965,244309751,1,LeaveRevengeToGod,Talk:Criticism of fractional-reserve banking,/* Who is gregalton? */
2008-10-10T05:30:03+00:00,244309751,244308609,1,LeaveRevengeToGod,Talk:Criticism of fractional-reserve banking,/* Who is gregalton? */
2008-10-10T05:27:38+00:00,244309414,244309280,1,LeaveRevengeToGod,Criticism of fractional-reserve banking,
2008-10-10T05:26:33+00:00,244309280,244307327,1,LeaveRevengeToGod,Criticism of fractional-reserve banking,
2008-10-10T05:21:38+00:00,244308609,244308549,1,LeaveRevengeToGod,Talk:Criticism of fractional-reserve banking,/* Who is gregalton? */
2008-10-10T05:21:08+00:00,244308549,244308200,1,LeaveRevengeToGod,Talk:Criticism of fractional-reserve banking,/* Who is gregalton? */
2008-10-10T05:18:47+00:00,244308200,244308107,1,LeaveRevengeToGod,Talk:Criticism of fractional-reserve banking,/* Who is gregalton? */
2008-10-10T05:18:11+00:00,244308107,244308006,1,LeaveRevengeToGod,Talk:Criticism of fractional-reserve banking,/* Who is gregalton? */
2008-10-10T05:17:33+00:00,244308006,244307893,1,LeaveRevengeToGod,Talk:Criticism of fractional-reserve banking,/* Who is gregalton? */
2008-10-10T05:16:47+00:00,244307893,244307838,1,LeaveRevengeToGod,Talk:Criticism of fractional-reserve banking,/* Who is gregalton? */
2008-10-10T05:16:24+00:00,244307838,243790401,1,LeaveRevengeToGod,Talk:Criticism of fractional-reserve banking,/* Who is gregalton? */
2008-10-10T05:12:33+00:00,244307327,244306813,1,LeaveRevengeToGod,Criticism of fractional-reserve banking,
2008-10-10T05:08:27+00:00,244306813,243492041,1,LeaveRevengeToGod,Criticism of fractional-reserve banking,
2008-10-10T05:06:14+00:00,244306543,243969962,1,LeaveRevengeToGod,Talk:Credit crunch,/* Crunch versus sqeeze again. Time to merge yet? */
2008-10-10T05:04:55+00:00,244306343,244306307,1,LeaveRevengeToGod,Talk:Austrian business cycle theory,/* Grammer - the lost art of communication */
2008-10-10T05:04:38+00:00,244306307,243203995,1,LeaveRevengeToGod,Talk:Austrian business cycle theory,/* Badly expressed or beating a straw man */
2008-09-06T04:38:45+00:00,236592336,236591957,1,LetThemMintPaper,Austrian business cycle theory,/* Theory */
2008-09-06T04:35:58+00:00,236591957,236566634,1,LetThemMintPaper,Austrian business cycle theory,"Too many inconsistencies.  We'll go with ""s"" rather than ""z"" unless someone says otherwise."
2008-09-06T01:25:22+00:00,236566634,236386634,1,LetThemMintPaper,Austrian business cycle theory,"/* Theory */  Do we go with English ""s"" or American ""z""?"
2008-09-05T22:05:53+00:00,236535454,236458358,1,LetThemMintPaper,Talk:Austrian business cycle theory,/* Origins & Questions sections need to be wikified */
2008-09-05T10:12:24+00:00,236419927,236419810,1,LetThemMintPaper,Talk:Austrian business cycle theory,/* Origins & Questions sections need to be wikified */
2008-09-05T10:10:43+00:00,236419810,236414422,1,LetThemMintPaper,Talk:Austrian business cycle theory,/* Origins & Questions sections need to be wikified */
2008-09-05T04:49:34+00:00,236386634,236386561,1,LetThemMintPaper,Austrian business cycle theory,
2008-09-05T04:48:48+00:00,236386561,236386135,1,LetThemMintPaper,Austrian business cycle theory,
2008-09-05T04:45:04+00:00,236386135,236251962,1,LetThemMintPaper,Austrian business cycle theory,/* Theory */
2008-09-04T23:14:33+00:00,236339275,236339171,1,LetThemMintPaper,Talk:Austrian business cycle theory,/* Origins & Questions sections need to be wikified */
2008-09-04T23:14:00+00:00,236339171,236338985,1,LetThemMintPaper,Talk:Austrian business cycle theory,/* Origins & Questions sections need to be wikified */
2008-09-04T23:12:48+00:00,236338985,236338948,1,LetThemMintPaper,Talk:Austrian business cycle theory,/* Origins & Questions sections need to be wikified */
2008-09-04T23:12:33+00:00,236338948,236338891,1,LetThemMintPaper,Talk:Austrian business cycle theory,/* Origins & Questions sections need to be wikified */
2008-09-04T23:12:11+00:00,236338891,236249600,1,LetThemMintPaper,Talk:Austrian business cycle theory,/* Origins & Questions sections need to be wikified */
2008-09-04T11:41:47+00:00,236217590,236209948,1,LetThemMintPaper,Austrian business cycle theory,
2008-09-04T10:34:44+00:00,236209948,236189891,1,LetThemMintPaper,Austrian business cycle theory,/* Theory */
2008-09-04T08:02:17+00:00,236193359,236193312,1,LetThemMintPaper,Talk:Austrian business cycle theory,/* Origins & Questions sections need to be wikified */
2008-09-04T08:01:50+00:00,236193312,236193072,1,LetThemMintPaper,Talk:Austrian business cycle theory,/* Origins & Questions sections need to be wikified */
2008-09-04T07:59:09+00:00,236193072,236192993,1,LetThemMintPaper,Talk:Austrian business cycle theory,/* Origins & Questions sections need to be wikified */
2008-09-04T07:58:16+00:00,236192993,236192894,1,LetThemMintPaper,Talk:Austrian business cycle theory,/* Origins & Questions sections need to be wikified */
2008-09-04T07:57:09+00:00,236192894,236192858,1,LetThemMintPaper,Talk:Austrian business cycle theory,/* Origins & Questions sections need to be wikified */
2008-09-04T07:56:43+00:00,236192858,236192776,1,LetThemMintPaper,Talk:Austrian business cycle theory,/* Origins & Questions sections need to be wikified */
2008-09-04T07:55:40+00:00,236192776,236191368,1,LetThemMintPaper,Talk:Austrian business cycle theory,/* Origins & Questions sections need to be wikified */
2008-09-04T06:44:10+00:00,236185469,236185433,1,LetThemMintPaper,Central bank,[[WP:UNDO|Undid]] revision 236185433 by [[Special:Contributions/LetThemMintPaper|LetThemMintPaper]] ([[User talk:LetThemMintPaper|talk]])
2008-09-04T06:43:48+00:00,236185433,235776279,1,LetThemMintPaper,Central bank,/* Activities and responsibilities */
2008-09-04T06:15:13+00:00,236182654,236182603,1,LetThemMintPaper,Austrian business cycle theory,/* Theory */
2008-09-04T06:14:46+00:00,236182603,236182456,1,LetThemMintPaper,Austrian business cycle theory,/* Theory */
2008-09-04T06:13:16+00:00,236182456,236182207,1,LetThemMintPaper,Austrian business cycle theory,/* Theory */
2008-09-04T06:11:05+00:00,236182207,236182062,1,LetThemMintPaper,Austrian business cycle theory,/* Theory */
2008-09-04T06:09:40+00:00,236182062,236181898,1,LetThemMintPaper,Austrian business cycle theory,/* Theory */
2008-09-04T06:08:15+00:00,236181898,236181649,1,LetThemMintPaper,Austrian business cycle theory,/* Theory */
2008-09-04T06:05:27+00:00,236181649,236181350,1,LetThemMintPaper,Austrian business cycle theory,[[WP:UNDO|Undid]] revision 236181350 by [[Special:Contributions/LetThemMintPaper|LetThemMintPaper]] ([[User talk:LetThemMintPaper|talk]])
2008-09-04T06:01:59+00:00,236181350,236171738,1,LetThemMintPaper,Austrian business cycle theory,
2008-09-04T04:36:03+00:00,236172268,236171173,1,LetThemMintPaper,Talk:Austrian business cycle theory,/* Good job! */
2008-09-04T04:30:44+00:00,236171738,236169851,1,LetThemMintPaper,Austrian business cycle theory,/* Theory */
2008-09-04T04:24:18+00:00,236171173,236170547,1,LetThemMintPaper,Talk:Austrian business cycle theory,
2008-09-04T04:12:05+00:00,236170547,236169857,1,LetThemMintPaper,Talk:Austrian business cycle theory,/* Good job! */
2008-09-04T04:06:14+00:00,236169851,236169187,1,LetThemMintPaper,Austrian business cycle theory,
2008-09-04T04:00:57+00:00,236169187,236169132,1,LetThemMintPaper,Austrian business cycle theory,/* Questions */
2008-09-04T04:00:28+00:00,236169132,236168969,1,LetThemMintPaper,Austrian business cycle theory,/* Questions */
2008-09-04T03:59:16+00:00,236168969,236168849,1,LetThemMintPaper,Austrian business cycle theory,/* Questions */
2008-09-04T03:58:29+00:00,236168849,236168799,1,LetThemMintPaper,Austrian business cycle theory,/* Questions */
2008-09-04T03:58:04+00:00,236168799,236168750,1,LetThemMintPaper,Austrian business cycle theory,/* Questions */
2008-09-04T03:57:40+00:00,236168750,236136224,1,LetThemMintPaper,Austrian business cycle theory,/* Questions */
2008-09-04T00:18:25+00:00,236136224,236132161,1,LetThemMintPaper,Austrian business cycle theory,
2008-09-03T23:52:20+00:00,236132161,236132077,1,LetThemMintPaper,Austrian business cycle theory,/* Theory */
2008-09-03T23:51:48+00:00,236132077,236132015,1,LetThemMintPaper,Austrian business cycle theory,/* Theory */
2008-09-03T23:51:27+00:00,236132015,236128499,1,LetThemMintPaper,Austrian business cycle theory,Fully referenced.  Couldn't be more fully referenced.  These are the core cites for the theory.  Polliet's piece is particularly good at covering all the main issues.
2008-09-03T23:30:29+00:00,236128499,236052174,1,LetThemMintPaper,Austrian business cycle theory,"Added two citations which address this very point - Mises' ""crack-up boom"" is clearly explained in both, with quotes.  It can't be any clearer."
2008-09-03T08:06:58+00:00,235985912,235985582,1,LetThemMintPaper,Austrian business cycle theory,/* Theory */
2008-09-03T08:03:28+00:00,235985582,235968943,1,LetThemMintPaper,Austrian business cycle theory,/* Theory */
2008-09-03T07:15:26+00:00,235980815,232615044,1,LetThemMintPaper,Talk:Criticism of fractional-reserve banking,"Interesting ""academic"" reference on this point I've been able to dig up.  Perhaps there's more on this than I first thought."
2008-09-03T07:09:55+00:00,235980312,235979887,1,LetThemMintPaper,Full-reserve banking,/* See also */
2008-09-03T07:05:47+00:00,235979887,235979749,1,LetThemMintPaper,Full-reserve banking,
2008-09-03T07:04:22+00:00,235979749,235979648,1,LetThemMintPaper,Full-reserve banking,/* Criticism of 100% reserves banking */
2008-09-03T07:03:27+00:00,235979648,235979343,1,LetThemMintPaper,Full-reserve banking,
2008-09-03T07:00:27+00:00,235979343,235978383,1,LetThemMintPaper,Full-reserve banking,
2008-09-03T06:51:00+00:00,235978383,235976865,1,LetThemMintPaper,Full-reserve banking,
2008-09-03T06:35:05+00:00,235976865,235976785,1,LetThemMintPaper,Full-reserve banking,/* Monetary reform */
2008-09-03T06:34:20+00:00,235976785,235976749,1,LetThemMintPaper,Full-reserve banking,/* Monetary reform */
2008-09-03T06:33:57+00:00,235976749,235976210,1,LetThemMintPaper,Full-reserve banking,/* Monetary reform */
2008-09-03T06:28:08+00:00,235976210,235975783,1,LetThemMintPaper,Full-reserve banking,/* Criticism of 100% reserves banking */
2008-09-03T06:23:27+00:00,235975783,235975365,1,LetThemMintPaper,Full-reserve banking,/* Reserve ratio */
2008-09-03T06:18:37+00:00,235975365,235975263,1,LetThemMintPaper,Full-reserve banking,
2008-09-03T06:17:34+00:00,235975263,231972255,1,LetThemMintPaper,Full-reserve banking,
2008-09-03T05:07:55+00:00,235968943,235968279,1,LetThemMintPaper,Austrian business cycle theory,
2008-09-03T05:03:30+00:00,235968279,235968250,1,LetThemMintPaper,Austrian business cycle theory,/* Theory */
2008-09-03T05:03:15+00:00,235968250,235967548,1,LetThemMintPaper,Austrian business cycle theory,/* Theory */
2008-09-03T04:55:28+00:00,235967548,235956963,1,LetThemMintPaper,Austrian business cycle theory,"This citation is not used to prove the theory is ""right"", but merely to prove that the view is out there amongst Austrians.  Therefore, the reference does not need to be strictly WP ""reliable"""
2008-09-03T03:24:57+00:00,235956963,235927367,1,LetThemMintPaper,Austrian business cycle theory,/* Theory */
2008-09-03T02:53:11+00:00,235952761,235924812,1,LetThemMintPaper,Credit crunch,/* See also */
2008-09-03T02:08:41+00:00,235945820,226718610,1,LetThemMintPaper,Libor,/* Bibliography */
2008-09-02T23:56:37+00:00,235924001,235923619,1,LetThemMintPaper,Austrian business cycle theory,/* Theory */
2008-09-02T23:54:36+00:00,235923619,235923070,1,LetThemMintPaper,Austrian business cycle theory,/* Theory */  Gender-neutral alternative
2008-09-02T23:52:02+00:00,235923070,235923004,1,LetThemMintPaper,Austrian business cycle theory,/* Theory */
2008-09-02T23:51:41+00:00,235923004,235922680,1,LetThemMintPaper,Austrian business cycle theory,/* Theory */
2008-09-02T23:49:56+00:00,235922680,235917836,1,LetThemMintPaper,Austrian business cycle theory,Excellent Polliet citation now included
2008-09-02T23:22:55+00:00,235917836,235785891,1,LetThemMintPaper,Austrian business cycle theory,
2008-09-02T10:38:15+00:00,235788387,229980372,1,LetThemMintPaper,Talk:Austrian business cycle theory,
2008-09-02T10:17:59+00:00,235785891,235785001,1,LetThemMintPaper,Austrian business cycle theory,/* Theory */
2008-09-02T10:10:42+00:00,235785001,235784747,1,LetThemMintPaper,Austrian business cycle theory,/* Theory */
2008-09-02T10:08:33+00:00,235784747,235784233,1,LetThemMintPaper,Austrian business cycle theory,/* Theory */
2008-09-02T10:04:23+00:00,235784233,235783820,1,LetThemMintPaper,Austrian business cycle theory,/* Theory */
2008-09-02T10:01:21+00:00,235783820,235782916,1,LetThemMintPaper,Austrian business cycle theory,
2008-09-02T09:54:37+00:00,235782916,235782858,1,LetThemMintPaper,Austrian business cycle theory,/* Theory */
2008-09-02T09:54:10+00:00,235782858,235782667,1,LetThemMintPaper,Austrian business cycle theory,/* Theory */
2008-09-02T09:52:47+00:00,235782667,235781987,1,LetThemMintPaper,Austrian business cycle theory,
2008-09-02T09:47:46+00:00,235781987,235781956,1,LetThemMintPaper,Austrian business cycle theory,
2008-09-02T09:47:31+00:00,235781956,235781769,1,LetThemMintPaper,Austrian business cycle theory,
2008-09-02T09:46:17+00:00,235781769,235781713,1,LetThemMintPaper,Austrian business cycle theory,
2008-09-02T09:45:52+00:00,235781713,231857649,1,LetThemMintPaper,Austrian business cycle theory,"Cleaned up a number of issues of expression, made it more readable.  I hope you agree..."
2008-09-02T08:56:44+00:00,235775371,235774996,1,LetThemMintPaper,Monetary reform,
2008-09-02T08:53:37+00:00,235774996,235740014,1,LetThemMintPaper,Monetary reform,
2008-09-02T08:45:21+00:00,235774067,235773477,1,LetThemMintPaper,Talk:Credit crunch,/* External links */  No success
2008-09-02T08:43:24+00:00,235773872,235692036,1,LetThemMintPaper,Credit crunch,
2008-09-02T08:39:51+00:00,235773477,232455616,1,LetThemMintPaper,Talk:Credit crunch,/* External links */
2008-09-02T03:59:55+00:00,235740014,235739879,1,LetThemMintPaper,Monetary reform,
2008-09-02T03:58:56+00:00,235739879,235739779,1,LetThemMintPaper,Monetary reform,
2008-09-02T03:58:09+00:00,235739779,235739157,1,LetThemMintPaper,Monetary reform,
2008-09-02T03:53:05+00:00,235739157,235701240,1,LetThemMintPaper,Monetary reform,
2008-09-01T23:49:16+00:00,235701240,235700948,1,LetThemMintPaper,Monetary reform,
2008-09-01T23:47:34+00:00,235700948,235700568,1,LetThemMintPaper,Monetary reform,
2008-09-01T23:46:07+00:00,235700684,235699648,1,LetThemMintPaper,Talk:Monetary reform,/* Inaccurate statements */
2008-09-01T23:45:36+00:00,235700568,235698935,1,LetThemMintPaper,Monetary reform,
2008-09-01T23:40:34+00:00,235699648,235503544,1,LetThemMintPaper,Talk:Monetary reform,/* Inaccurate statements */
2008-09-01T23:36:38+00:00,235698935,235565069,1,LetThemMintPaper,Monetary reform,
2008-09-01T23:29:44+00:00,235697771,235697479,1,LetThemMintPaper,User talk:EGeek,"/* ""Unreliable source"" */"
2008-09-01T23:27:57+00:00,235697479,230895442,1,LetThemMintPaper,User talk:EGeek,
2008-09-01T10:35:02+00:00,235565069,235564776,1,LetThemMintPaper,Monetary reform,
2008-09-01T10:32:19+00:00,235564776,235564000,1,LetThemMintPaper,Monetary reform,
2008-09-01T10:25:22+00:00,235564000,235451669,1,LetThemMintPaper,Monetary reform,
2008-09-01T06:18:53+00:00,235534878,235534666,1,LetThemMintPaper,Fractional-reserve banking,/* Effects of an increased money supply */  Added ref to support text
2008-09-01T06:17:08+00:00,235534666,235533274,1,LetThemMintPaper,Fractional-reserve banking,"/* Effects of an increased money supply */  Tidy-ups, added refs."
2008-09-01T06:05:38+00:00,235533274,235533206,1,LetThemMintPaper,Fractional-reserve banking,"/* Effects of an increased money supply */  Refs now added, so removed tag"
2008-09-01T06:05:05+00:00,235533206,234086839,1,LetThemMintPaper,Fractional-reserve banking,/* Effects of an increased money supply */  Tightened expression; added supporting refs
2008-09-01T05:57:36+00:00,235532300,235531569,1,LetThemMintPaper,Credit cycle,/* See Also */
2008-09-01T05:51:22+00:00,235531569,235531480,1,LetThemMintPaper,Credit cycle,
2008-09-01T05:50:34+00:00,235531480,215926865,1,LetThemMintPaper,Credit cycle,Added refs to buttress the paras
2008-09-01T02:59:47+00:00,235508046,235121948,1,LetThemMintPaper,User talk:Misessus,New moniker (more appropriate for the times)
2008-09-01T02:30:06+00:00,235503544,235319199,1,LetThemMintPaper,Talk:Monetary reform,/* Inaccurate statements */
2008-09-01T00:41:52+00:00,235486776,235356019,1,LetThemMintPaper,Credit crunch,
2008-08-31T09:03:03+00:00,235346855,235346434,1,LetThemMintPaper,User talk:Gregalton,/* Revised Moniker */
2008-08-31T08:58:04+00:00,235346258,235169583,1,LetThemMintPaper,User talk:Gregalton,
2010-08-14T04:49:46+00:00,378827170,378827011,1,LibidoDominandi,Malinvestment,/* Austrian Business Cycle Theory and Malinvestment */  ditto
2010-08-14T04:47:55+00:00,378827011,378762574,1,LibidoDominandi,Malinvestment,Clean up expression.  Heterodox MEANS 'not respected or different from the mainsream' so saying this is enough to get the point across.
2010-08-11T09:50:27+00:00,378336585,0,1,LibidoDominandi,User:LibidoDominandi,[[WP:AES|←]]Created page with 'I have an overwhelming Lust for Domination over Antonio's Property.'
2010-08-11T09:49:13+00:00,378336463,378336225,1,LibidoDominandi,User:EndgameOfDeath,
2008-06-19T07:25:07+00:00,220315215,218858508,1,Lifeissuffering,Economics of fascism,/* Pre-war economy: 1933-1939 */
2008-06-19T06:05:23+00:00,220306740,207281799,1,Lifeissuffering,Credit tightening,
2008-06-19T05:58:08+00:00,220305964,220305761,1,Lifeissuffering,Monetary reform,
2008-06-19T05:55:58+00:00,220305761,220305250,1,Lifeissuffering,Monetary reform,
2008-06-19T05:50:55+00:00,220305250,220291153,1,Lifeissuffering,Monetary reform,
2008-06-19T03:56:08+00:00,220291153,220291021,1,Lifeissuffering,Monetary reform,
2008-06-19T03:55:05+00:00,220291021,220290594,1,Lifeissuffering,Monetary reform,
2008-06-19T03:51:56+00:00,220290594,220289786,1,Lifeissuffering,Monetary reform,
2008-06-19T03:46:39+00:00,220289786,220112830,1,Lifeissuffering,Monetary reform,
2008-06-19T03:25:27+00:00,220286975,220093034,1,Lifeissuffering,Environmentalism,
2008-06-17T05:11:12+00:00,219861663,215990305,1,Lifeissuffering,Full-reserve banking,"Not hypothetical.  See talk page.  Most of history indicates full rb did exist as a ""fringe"" (but more reputable?) alternative to ""speculative"" frb (particlarly for unincorporated family-run banks)"
2008-06-05T03:06:48+00:00,217217697,216184619,1,Lifeissuffering,User talk:Gregalton,"/* Thanks */ Typo, sorry."
2008-05-31T13:43:40+00:00,216184978,216183473,1,Lifeissuffering,User talk:Lifeissuffering,
2008-05-31T13:41:26+00:00,216184619,216184371,1,Lifeissuffering,User talk:Gregalton,/* Thanks */
2008-05-31T13:39:37+00:00,216184371,215202369,1,Lifeissuffering,User talk:Gregalton,
2008-05-31T13:25:02+00:00,216182279,216181475,1,Lifeissuffering,Talk:Fractional-reserve banking,/* Question about fractional banking */
2008-05-31T13:19:08+00:00,216181475,216180701,1,Lifeissuffering,Talk:Fractional-reserve banking,/* Question about fractional banking */ Typo
2008-05-31T13:13:32+00:00,216180701,215899838,1,Lifeissuffering,Talk:Fractional-reserve banking,/* Question about fractional banking */  Typo
2012-08-14T12:02:19+00:00,507362293,507357625,1,LK'sPatsy,Talk:Austrian school of economics,/* OR & Synthesis */
2012-08-14T11:24:31+00:00,507357641,507357509,1,LK'sPatsy,Wikipedia:Sockpuppet investigations/Karmaisking,/* Comments by other users */
2012-08-14T11:23:10+00:00,507357509,507357467,1,LK'sPatsy,Wikipedia:Sockpuppet investigations/Karmaisking,/* Comments by other users */
2012-08-14T11:22:49+00:00,507357467,507352511,1,LK'sPatsy,Wikipedia:Sockpuppet investigations/Karmaisking,/* Comments by other users */
2012-08-14T03:35:40+00:00,507316853,507316597,1,LK'sPatsy,Austrian school of economics,"More accurate.  And Shostak quotes Murray on this issue.  So clear that de Soto, Murry and Shostak support FULL RB or heavy regulation in banking."
2012-08-14T03:32:19+00:00,507316597,507315114,1,LK'sPatsy,Austrian school of economics,Shostak is an Austrian economist writing out of Mises.org for pete's sake.  It's self evident he (Austrian) supports financial regulation.
2012-08-14T03:04:49+00:00,507313813,507294039,1,LK'sPatsy,Austrian school of economics,"Sorry that's a lie.  Read the reference and Rothbard and de Soto.  Full RB is supported by many (perhaps most) Austrians, regardless of contractual conditions.  Yes, I'm Karmaisking but this is b*llshit.  I have to revert."
2012-08-14T02:58:18+00:00,507313154,507313044,1,LK'sPatsy,Wikipedia:Sockpuppet investigations/Karmaisking,/* Comments by other users */
2012-08-14T02:57:26+00:00,507313044,507191222,1,LK'sPatsy,Wikipedia:Sockpuppet investigations/Karmaisking,/* Comments by other users */
2012-08-13T08:15:49+00:00,507170125,507170013,1,LK'sPatsy,Talk:Austrian school of economics,"/* ""Track record of predictions"" */"
2012-08-13T08:14:55+00:00,507170013,507162537,1,LK'sPatsy,Talk:Austrian school of economics,"/* ""Track record of predictions"" */"
2012-08-13T06:53:51+00:00,507162056,507126229,1,LK'sPatsy,Talk:Austrian school of economics,"/* ""Track record of predictions"" */"
2010-08-06T10:11:51+00:00,377455182,0,1,LocustsCan'tPlan,User:LocustsCan'tPlan,[[WP:AES|←]]Created page with 'so why do we expect the Shylock-Banksters to be able to?'
2010-07-17T03:25:28+00:00,373917788,0,1,MalevolentParasiticRat-LikeBanksters,User:MalevolentParasiticRat-LikeBanksters,[[WP:AES|←]]Created page with 'eventually end up cannibalizing themselves once the weight of the pyramid causes it to collapse (enjoy the feed...)'
2010-07-17T03:23:24+00:00,373917549,373373692,1,MalevolentParasiticRat-LikeBanksters,Moral hazard,General clean ups (much needed)
2010-06-18T07:47:16+00:00,368759082,368758961,1,MisesVindicated,Talk:Criticism of fractional-reserve banking,/* Unnecessary Censorship */
2008-06-15T06:23:21+00:00,219439729,219439669,1,Monetarycrank,Michael Rowbotham,
2008-06-15T06:22:47+00:00,219439669,219439592,1,Monetarycrank,Michael Rowbotham,
2008-06-15T06:22:03+00:00,219439592,211398844,1,Monetarycrank,Michael Rowbotham,
2008-06-15T06:10:56+00:00,219438149,219438039,1,Monetarycrank,Monetary reform,
2008-06-15T06:09:59+00:00,219438039,219434905,1,Monetarycrank,Monetary reform,
2008-06-15T05:42:36+00:00,219434905,219434259,1,Monetarycrank,Monetary reform,
2008-06-15T05:36:45+00:00,219434259,219434070,1,Monetarycrank,Monetary reform,
2008-06-15T05:35:01+00:00,219434070,219433986,1,Monetarycrank,Monetary reform,
2008-06-15T05:34:14+00:00,219433986,219433946,1,Monetarycrank,Monetary reform,
2008-06-15T05:33:56+00:00,219433946,219433624,1,Monetarycrank,Monetary reform,
2008-06-15T05:31:15+00:00,219433624,219420198,1,Monetarycrank,Monetary reform,
2008-06-15T03:40:30+00:00,219420198,219419562,1,Monetarycrank,Monetary reform,
2008-06-15T03:35:54+00:00,219419562,219058091,1,Monetarycrank,Monetary reform,
2008-06-13T11:16:14+00:00,219058091,219058032,1,Monetarycrank,Monetary reform,
2008-06-13T11:15:45+00:00,219058032,219057498,1,Monetarycrank,Monetary reform,
2008-06-13T11:11:27+00:00,219057498,219057307,1,Monetarycrank,Monetary reform,
2008-06-13T11:09:55+00:00,219057307,219057205,1,Monetarycrank,Monetary reform,
2008-06-13T11:09:07+00:00,219057205,219056975,1,Monetarycrank,Monetary reform,
2008-06-13T11:07:21+00:00,219056975,219056825,1,Monetarycrank,Monetary reform,
2008-06-13T11:06:10+00:00,219056825,219056750,1,Monetarycrank,Monetary reform,
2008-06-13T11:05:27+00:00,219056750,219056611,1,Monetarycrank,Monetary reform,
2008-06-13T11:04:22+00:00,219056611,219056395,1,Monetarycrank,Monetary reform,
2008-06-13T11:02:38+00:00,219056395,218934684,1,Monetarycrank,Monetary reform,
2008-06-12T10:59:57+00:00,218833605,218803690,1,Monetarycrank,Credit crunch,
2008-06-12T10:54:39+00:00,218832899,218831318,1,Monetarycrank,Monetary reform,
2008-06-12T10:41:56+00:00,218831318,217983803,1,Monetarycrank,Monetary reform,
2008-07-23T07:32:21+00:00,227368445,227338966,1,MonetaryCrankster,Credit crunch,
2008-07-23T07:20:11+00:00,227367131,223496256,1,MonetaryCrankster,Talk:Fiat money,
2008-07-23T07:09:25+00:00,227365964,227365920,1,MonetaryCrankster,Fiat money,/* Early history */
2008-07-23T07:09:04+00:00,227365920,227365773,1,MonetaryCrankster,Fiat money,/* History */
2008-07-23T07:01:14+00:00,227365061,227365022,1,MonetaryCrankster,Fiat money,
2008-07-23T07:00:53+00:00,227365022,227364382,1,MonetaryCrankster,Fiat money,
2008-07-23T06:55:11+00:00,227364382,227332026,1,MonetaryCrankster,Fiat money,
2008-07-23T06:44:57+00:00,227363280,227363249,1,MonetaryCrankster,Monetary reform,
2008-07-23T06:44:41+00:00,227363249,227359822,1,MonetaryCrankster,Monetary reform,
2008-07-23T06:41:13+00:00,227362866,227359511,1,MonetaryCrankster,Talk:Monetary reform,/* Gregalton Attacks with a Long Knife.  In the Back.  At Night. */
2008-07-23T06:10:23+00:00,227359822,227354543,1,MonetaryCrankster,Monetary reform,
2008-07-23T06:07:12+00:00,227359511,227353278,1,MonetaryCrankster,Talk:Monetary reform,The Crankster is angry.  When he is angry he edits and oozes...information and references.  Accurate ones.
2008-07-23T05:23:08+00:00,227354543,227354349,1,MonetaryCrankster,Monetary reform,
2008-07-23T05:21:40+00:00,227354349,227354261,1,MonetaryCrankster,Monetary reform,
2008-07-23T05:20:59+00:00,227354261,227354156,1,MonetaryCrankster,Monetary reform,
2008-07-23T05:20:12+00:00,227354156,227353985,1,MonetaryCrankster,Monetary reform,
2008-07-23T05:19:02+00:00,227353985,227353693,1,MonetaryCrankster,Monetary reform,
2008-07-23T05:16:53+00:00,227353693,227351692,1,MonetaryCrankster,Monetary reform,
2008-07-23T05:13:23+00:00,227353278,227349731,1,MonetaryCrankster,Talk:Monetary reform,/* Gregalton Attacks with a Long Knife.  In the Back */
2008-07-23T05:01:17+00:00,227351692,227351652,1,MonetaryCrankster,Monetary reform,
2008-07-23T05:00:59+00:00,227351652,227351495,1,MonetaryCrankster,Monetary reform,
2008-07-23T04:59:38+00:00,227351495,227350603,1,MonetaryCrankster,Monetary reform,
2008-07-23T04:52:42+00:00,227350603,227350563,1,MonetaryCrankster,Monetary reform,
2008-07-23T04:52:18+00:00,227350563,227350513,1,MonetaryCrankster,Monetary reform,
2008-07-23T04:51:57+00:00,227350513,227350328,1,MonetaryCrankster,Monetary reform,
2008-07-23T04:50:29+00:00,227350328,227348000,1,MonetaryCrankster,Monetary reform,
2008-07-23T04:45:47+00:00,227349731,227335115,1,MonetaryCrankster,Talk:Monetary reform,Please don't turn this into a revert war...
2008-07-23T04:12:55+00:00,227345895,227345857,1,MonetaryCrankster,User talk:Gregalton,/* I don't want to keep doing this */
2008-07-23T04:12:35+00:00,227345857,227345728,1,MonetaryCrankster,User talk:Gregalton,/* I don't want to keep doing this */
2008-07-23T04:10:20+00:00,227345592,226017862,1,MonetaryCrankster,User talk:Gregalton,
2008-07-23T03:19:12+00:00,227339287,227339221,1,MonetaryCrankster,Talk:Credit crunch,/* External links */
2008-07-23T03:18:47+00:00,227339221,222987794,1,MonetaryCrankster,Talk:Credit crunch,/* External links */
2008-07-23T03:16:57+00:00,227338966,226985960,1,MonetaryCrankster,Credit crunch,
2008-07-23T03:12:25+00:00,227338417,227336435,1,MonetaryCrankster,Monetary reform,
2008-07-23T02:58:22+00:00,227336435,227336349,1,MonetaryCrankster,Monetary reform,
2008-07-23T02:57:43+00:00,227336349,227335923,1,MonetaryCrankster,Monetary reform,
2008-07-23T02:54:38+00:00,227335923,227331660,1,MonetaryCrankster,Monetary reform,
2008-07-23T02:49:25+00:00,227335115,227335019,1,MonetaryCrankster,Talk:Monetary reform,/* Gregalton Attacks with a Long Knife.  In the Back */
2008-07-23T02:48:50+00:00,227335019,227334921,1,MonetaryCrankster,Talk:Monetary reform,/* Gregalton Attacks with a Long Knife.  In the Back */
2008-07-23T02:48:14+00:00,227334921,227334797,1,MonetaryCrankster,Talk:Monetary reform,/* Gregalton Attacks with a Long Knife.  In the Back */
2008-07-23T02:47:26+00:00,227334797,227334477,1,MonetaryCrankster,Talk:Monetary reform,/* Gregalton Attacks with a Long Knife.  In the Back */
2008-07-23T02:45:13+00:00,227334477,227333236,1,MonetaryCrankster,Talk:Monetary reform,/* Gregalton Attacks with a Long Knife.  In the Back */   Did you get the hidden references?  How much history have you read?
2008-07-23T02:36:40+00:00,227333236,227333059,1,MonetaryCrankster,Talk:Monetary reform,/* Gregalton Attacks with a Long Knife.  In the Back */
2008-07-23T02:35:32+00:00,227333059,227332945,1,MonetaryCrankster,Talk:Monetary reform,/* Gregalton Attacks with a Long Knife.  In the Back */
2008-07-23T02:34:55+00:00,227332945,227191258,1,MonetaryCrankster,Talk:Monetary reform,
2008-07-23T02:26:47+00:00,227331660,227232327,1,MonetaryCrankster,Monetary reform,
2008-07-22T11:39:56+00:00,227187493,227186629,1,MonetaryCrankster,Monetary reform,
2008-07-22T11:36:27+00:00,227187029,215188336,1,MonetaryCrankster,Talk:Monetary reform,
2008-07-22T11:33:30+00:00,227186629,227178656,1,MonetaryCrankster,Monetary reform,
2008-07-22T03:28:57+00:00,227134523,226914155,1,MonetaryCrankster,Gold standard,/* Ancient Wisdom */   Rubbish w/o references.  Idiot must have written it.
2008-07-22T03:26:39+00:00,227134228,227134025,1,MonetaryCrankster,Fractional-reserve banking,/* Criticism */
2008-07-22T03:25:06+00:00,227134025,227133950,1,MonetaryCrankster,Fractional-reserve banking,/* Criticism */
2008-07-22T03:24:21+00:00,227133950,227089901,1,MonetaryCrankster,Fractional-reserve banking,/* Criticism */
2008-07-20T11:44:23+00:00,226793655,226793482,1,MonetaryCrankster,Full-reserve banking,
2008-07-20T11:42:41+00:00,226793482,226793366,1,MonetaryCrankster,Full-reserve banking,
2008-07-20T11:41:40+00:00,226793366,226793300,1,MonetaryCrankster,Full-reserve banking,
2008-07-20T11:40:59+00:00,226793300,226755435,1,MonetaryCrankster,Full-reserve banking,
2008-07-20T10:14:57+00:00,226784185,226386045,1,MonetaryCrankster,Monetary reform,
2008-07-19T06:45:09+00:00,226589383,226512511,1,MonetaryCrankster,Credit crunch,
2008-07-18T04:48:11+00:00,226389364,226389139,1,MonetaryCrankster,Hyman Minsky,/* Financial theory */
2008-07-18T04:46:24+00:00,226389139,226388972,1,MonetaryCrankster,Hyman Minsky,/* See also */
2008-07-18T04:44:57+00:00,226388972,211505115,1,MonetaryCrankster,Hyman Minsky,/* See also */
2008-07-18T04:35:01+00:00,226387768,226387393,1,MonetaryCrankster,Talk:Fractional-reserve banking,bwankster
2008-07-18T04:31:43+00:00,226387393,226387079,1,MonetaryCrankster,Talk:Fractional-reserve banking,/* Unnecessary riddles! */
2008-07-18T04:28:57+00:00,226387079,226386904,1,MonetaryCrankster,Talk:Fractional-reserve banking,/* Unnecessary riddles! */  Disamb
2008-07-18T04:27:33+00:00,226386904,226319521,1,MonetaryCrankster,Talk:Fractional-reserve banking,/* Unnecessary riddles! */
2008-07-15T01:51:13+00:00,225718870,223548632,1,MonetaryCrankster,B. A. Santamaria,/* Early and Family Life */
2008-07-13T23:12:04+00:00,225486554,223860587,1,MonetaryCrankster,Talk:Criticism of fractional-reserve banking,Typo (sorry)
2008-07-11T10:45:51+00:00,224993714,224992561,1,MonetaryCrankster,Talk:Fractional-reserve banking,"Lyrical gangster, monetary crankster..."
2008-07-11T10:33:02+00:00,224992561,224536535,1,MonetaryCrankster,Talk:Fractional-reserve banking,/* Question about fractional banking */
2008-07-06T10:43:43+00:00,223890838,223007290,1,MonetaryCrankster,Monetary reform,
2008-07-06T05:22:20+00:00,223860587,223440182,1,MonetaryCrankster,Talk:Criticism of fractional-reserve banking,"Lyrical gangster, monetary crankster..."
2008-06-27T12:04:41+00:00,222067153,222067033,1,MonetaryCrankster,Monetary reform,
2008-06-27T12:03:41+00:00,222067033,222066908,1,MonetaryCrankster,Monetary reform,
2008-06-27T12:02:50+00:00,222066908,222066645,1,MonetaryCrankster,Monetary reform,"/* Governments do not supply money.  Private banks do, for profit */"
2008-06-27T12:00:43+00:00,222066645,222066331,1,MonetaryCrankster,Monetary reform,
2008-06-27T11:58:15+00:00,222066331,221323165,1,MonetaryCrankster,Monetary reform,
2008-06-27T08:40:34+00:00,222045468,220747213,1,MonetaryCrankster,Talk:Criticism of fractional-reserve banking,"/* ""Money as Debt"" as an External Link */"
2008-06-27T08:33:07+00:00,222044502,221845988,1,MonetaryCrankster,Credit crunch,
2010-08-06T12:15:58+00:00,377467497,377312651,1,NoHopeInFiatMoneyWorld,User talk:BigK HeX,
2010-08-06T11:41:05+00:00,377463853,0,1,NoHopeInFiatMoneyWorld,User:NoHopeInFiatMoneyWorld,"[[WP:AES|←]]Created page with 'I am a confirmed sockppt of Karmaisking, not suspected sockppt.  Thank you.'"
2010-08-06T11:40:16+00:00,377463751,375613017,1,NoHopeInFiatMoneyWorld,Money as Debt,
2018-09-19T06:06:48+00:00,860225889,860225717,1,NothingsChangedPostGFC,Fractional-reserve banking,Due process - go to get this reviewed (only suspected SP)
2018-09-19T06:05:04+00:00,860225717,860219963,1,NothingsChangedPostGFC,Fractional-reserve banking,Undid revision 860219963 by [[Special:Contributions/Lawrencekhoo|Lawrencekhoo]] ([[User talk:Lawrencekhoo|talk]])
2018-09-19T00:26:39+00:00,860196987,860196969,1,NothingsChangedPostGFC,Fractional-reserve banking,/* Status under current systems */
2018-09-19T00:26:25+00:00,860196969,860196944,1,NothingsChangedPostGFC,Fractional-reserve banking,"/* Corporatism, Crony Capitalism, Confiscation and Crisis */"
2018-09-19T00:26:07+00:00,860196944,860196906,1,NothingsChangedPostGFC,Fractional-reserve banking,/* Potential solutions */
2018-09-19T00:25:39+00:00,860196906,860196884,1,NothingsChangedPostGFC,Fractional-reserve banking,/* Distorting Effects on the Economy */
2018-09-19T00:25:24+00:00,860196884,860196864,1,NothingsChangedPostGFC,Fractional-reserve banking,/* Basic debate */
2018-09-19T00:25:08+00:00,860196864,860196849,1,NothingsChangedPostGFC,Fractional-reserve banking,/* Key criticisms */
2018-09-19T00:24:52+00:00,860196849,860196822,1,NothingsChangedPostGFC,Fractional-reserve banking,/* +=Terminology=+ */
2018-09-19T00:24:34+00:00,860196822,860196784,1,NothingsChangedPostGFC,Fractional-reserve banking,/* Terminology */
2018-09-19T00:24:07+00:00,860196784,860196517,1,NothingsChangedPostGFC,Fractional-reserve banking,/* Criticisms */
2018-09-19T00:23:11+00:00,860196681,0,1,NothingsChangedPostGFC,User:NothingsChangedPostGFC,[[WP:AES|←]]Created page with 'Hi Everyone  I've tried to start editing slowly and conservatively as you need to be timid when you first start editing on WP.  Hopefully you enjoy my edits.  I...'
2018-09-19T00:21:22+00:00,860196517,860196485,1,NothingsChangedPostGFC,Fractional-reserve banking,/* Criticisms on the basis of legitimacy */
2018-09-19T00:21:03+00:00,860196485,860196432,1,NothingsChangedPostGFC,Fractional-reserve banking,/* Criticisms on the basis of instability */
2018-09-19T00:20:27+00:00,860196432,860196309,1,NothingsChangedPostGFC,Fractional-reserve banking,/* Criticisms of textbook descriptions of the monetary system */
2018-09-19T00:19:00+00:00,860196309,860076647,1,NothingsChangedPostGFC,Fractional-reserve banking,/* Criticisms */
2011-03-27T10:14:13+00:00,420956462,420517823,1,NukeMyNuts,Malinvestment,"Insane socialist zealots should not be editing Austrian pages. Bias is obvious, criminal and sad."
2011-03-24T12:01:47+00:00,420476412,420476346,1,NukeMyNuts,Malinvestment,Obvious spacing typo
2011-03-24T12:01:10+00:00,420476346,420328177,1,NukeMyNuts,Malinvestment,Please explain reversion without explanation
2011-03-23T10:18:20+00:00,420298030,420297865,1,NukeMyNuts,Malinvestment,/* Austrian Business Cycle Theory and Malinvestment */
2011-03-23T10:16:42+00:00,420297865,414649564,1,NukeMyNuts,Malinvestment,"Remains uncited and criticism is contained in the ABCT article in any case.  This article is about the definition of 'malinvestment', not about ABCT as such."
2010-06-01T11:59:17+00:00,365414750,364960173,1,OilyChernobyl,Moral hazard,"fun, fun, fun, fun... ooouooouooouooooooooooooooo....... daddy's gonna take the t-bird away tho...."
2010-06-01T11:56:14+00:00,365414357,365040654,1,OilyChernobyl,Austrian business cycle theory,idon'tlikeukeynesloverkhoosotakethiseditandshookhoo
2010-06-01T11:47:34+00:00,365413310,365409923,1,OilyChernobyl,Austrian school of economics,fckukhoo
2010-06-01T09:11:17+00:00,365393843,365393706,1,OilyChernobyl,Austrian school of economics,/* Business cycles */
2010-06-01T09:10:02+00:00,365393706,365393349,1,OilyChernobyl,Austrian school of economics,unencyclopedic expression removed as well as undiscussed abct edits
2010-06-01T09:06:38+00:00,365393349,365128947,1,OilyChernobyl,Austrian school of economics,dramatic changes to abct section done without discussion on talk page. please discuss on talk page before editing further
2010-05-30T03:16:49+00:00,364960647,364374666,1,OilyChernobyl,Systemic risk,/* Discussion */  Past tense now
2011-04-21T10:10:08+00:00,425144019,0,1,OneCrisisAwayFromStarvation,User:OneCrisisAwayFromStarvation,"[[WP:AES|←]]Created page with 'Malinvestment has consequences.  In this case, the systematic destruction of arable land.  The solution?  Cannibalism.  Humans are the best source of protein on the...'"
2011-04-21T10:09:10+00:00,425143928,424385815,1,OneCrisisAwayFromStarvation,Malinvestment,
2010-06-19T05:38:03+00:00,368934964,368934846,1,ParasitesCanCounterfeitForOnlySoLong,User talk:Satori Son,
2010-06-19T05:37:07+00:00,368934846,368873277,1,ParasitesCanCounterfeitForOnlySoLong,User talk:Satori Son,
2011-07-01T03:10:44+00:00,437167039,437018885,1,PimpLagarde,Quantitative easing,
2010-10-03T05:16:08+00:00,388413546,388394809,1,Platinum_Dub,Australian Jews,/* Personalities */
2010-10-03T02:44:13+00:00,388394809,387050979,1,Platinum_Dub,Australian Jews,/* Personalities */
2009-01-06T11:23:31+00:00,262285627,0,1,PonziWasNotSuperman,User:PonziWasNotSuperman,"[[WP:AES|←]]Created page with 'And fractional reserve bankers, sharebrokers and governments are not Gods.'"
2009-01-05T10:01:57+00:00,262067167,262066980,1,PonziWasNotSuperman,Criticism of fractional-reserve banking,"/* Authors, analysts and alternatives */ Heading was removed.  Let's not delete irrationally."
2009-01-05T09:59:50+00:00,262066980,262066906,1,PonziWasNotSuperman,Criticism of fractional-reserve banking,
2009-01-05T09:58:51+00:00,262066906,262066817,1,PonziWasNotSuperman,Criticism of fractional-reserve banking,
2009-01-05T09:57:49+00:00,262066817,262066689,1,PonziWasNotSuperman,Criticism of fractional-reserve banking,
2009-01-05T09:56:34+00:00,262066689,262061269,1,PonziWasNotSuperman,Criticism of fractional-reserve banking,
2009-01-05T09:46:45+00:00,262065822,262065682,1,PonziWasNotSuperman,Monetary reform,
2009-01-05T09:45:02+00:00,262065682,262065649,1,PonziWasNotSuperman,Monetary reform,
2009-01-05T09:44:42+00:00,262065649,262065145,1,PonziWasNotSuperman,Monetary reform,
2009-01-05T09:39:01+00:00,262065145,262065055,1,PonziWasNotSuperman,Monetary reform,
2009-01-05T09:38:05+00:00,262065055,262065013,1,PonziWasNotSuperman,Monetary reform,
2009-01-05T09:37:29+00:00,262065013,262064956,1,PonziWasNotSuperman,Monetary reform,
2009-01-05T09:36:43+00:00,262064956,262064929,1,PonziWasNotSuperman,Monetary reform,
2009-01-05T09:36:29+00:00,262064929,261650934,1,PonziWasNotSuperman,Monetary reform,
2009-01-05T07:32:41+00:00,262054462,261997235,1,PonziWasNotSuperman,Austrian school of economics,/* Contributions */  So what?
2009-01-05T07:28:53+00:00,262054087,262053925,1,PonziWasNotSuperman,Credit crunch,
2009-01-05T07:27:12+00:00,262053925,262053809,1,PonziWasNotSuperman,Credit crunch,
2009-01-05T07:26:01+00:00,262053809,262053694,1,PonziWasNotSuperman,Credit crunch,
2009-01-05T07:24:46+00:00,262053694,262053020,1,PonziWasNotSuperman,Credit crunch,
2009-01-05T07:21:29+00:00,262053388,262053225,1,PonziWasNotSuperman,Criticism of fractional-reserve banking,
2009-01-05T07:19:42+00:00,262053225,262053138,1,PonziWasNotSuperman,Criticism of fractional-reserve banking,
2009-01-05T07:18:43+00:00,262053138,261905974,1,PonziWasNotSuperman,Criticism of fractional-reserve banking,
2009-01-05T07:17:33+00:00,262053020,261898908,1,PonziWasNotSuperman,Credit crunch,
2010-05-17T11:36:33+00:00,362597539,362596999,1,QE2Infinity!,User talk:QE2Infinity!,/* Sockpuppet Karmaisking */
2010-05-17T11:29:44+00:00,362596916,362595661,1,QE2Infinity!,Austrian business cycle theory,"Brilliant.  What an improvement.  Check your refing, Keynes-lover..."
2010-05-17T11:26:30+00:00,362596605,362592800,1,QE2Infinity!,Systemic risk,"robot robot robot robot....check the edits robot, robot, robot, robot....you'll find someone put rubbish in the lede robot, robot, robot"
2010-05-17T11:23:48+00:00,362596338,362596207,1,QE2Infinity!,User talk:QE2Infinity!,/* Sockpuppet Karmaisking */
2010-05-17T11:22:17+00:00,362596207,362596117,1,QE2Infinity!,User talk:QE2Infinity!,/* Sockpuppet Karmaisking */
2010-05-17T11:21:25+00:00,362596117,362592761,1,QE2Infinity!,User talk:QE2Infinity!,
2010-05-17T10:14:14+00:00,362589945,362589288,1,QE2Infinity!,Austrian business cycle theory,"/* Assertions */  That is absolutely ridiculous.  Caplan AND ""Austrian scholars assert"" - in the Assertions section.  When Caplan is ref'd in the Criticisms section already.  That in itself shows POV"
2010-05-17T10:08:28+00:00,362589447,362589142,1,QE2Infinity!,Talk:Austrian business cycle theory,
2010-05-17T10:05:03+00:00,362589142,362588885,1,QE2Infinity!,Talk:Austrian business cycle theory,
2010-05-17T10:02:17+00:00,362588885,362588680,1,QE2Infinity!,Talk:Austrian business cycle theory,
2010-05-17T10:00:23+00:00,362588680,362588597,1,QE2Infinity!,Talk:Austrian business cycle theory,
2010-05-17T09:54:25+00:00,362588139,362587887,1,QE2Infinity!,Austrian business cycle theory,"/* Assertions */  ""von"" is pointless in this context (means ""Sir"")"
2010-05-17T09:51:11+00:00,362587856,362587729,1,QE2Infinity!,Talk:Austrian business cycle theory,
2010-05-17T09:49:37+00:00,362587729,362587620,1,QE2Infinity!,Talk:Austrian business cycle theory,
2010-05-17T09:47:10+00:00,362587523,362587345,1,QE2Infinity!,Talk:Austrian business cycle theory,
2010-05-17T09:44:49+00:00,362587345,362587106,1,QE2Infinity!,Talk:Austrian business cycle theory,
2010-05-17T09:41:29+00:00,362587060,362586714,1,QE2Infinity!,Talk:Austrian business cycle theory,
2010-05-17T09:34:57+00:00,362586518,362586463,1,QE2Infinity!,Austrian business cycle theory,/* Assertions */
2010-05-17T09:34:20+00:00,362586463,362583569,1,QE2Infinity!,Austrian business cycle theory,/* Assertions */  minor clarification
2010-05-17T09:30:09+00:00,362586129,362586054,1,QE2Infinity!,Talk:Austrian business cycle theory,
2010-05-17T09:29:12+00:00,362586054,362585670,1,QE2Infinity!,Talk:Austrian business cycle theory,
2010-05-17T09:24:05+00:00,362585670,362585573,1,QE2Infinity!,Talk:Austrian business cycle theory,
2010-05-17T09:22:56+00:00,362585573,362585424,1,QE2Infinity!,Talk:Austrian business cycle theory,
2010-05-17T09:21:03+00:00,362585424,362585417,1,QE2Infinity!,Talk:Austrian business cycle theory,
2010-05-17T09:20:53+00:00,362585417,362585203,1,QE2Infinity!,Talk:Austrian business cycle theory,
2010-05-17T09:17:53+00:00,362585203,362585119,1,QE2Infinity!,Talk:Austrian business cycle theory,
2010-05-17T09:14:41+00:00,362584947,362584932,1,QE2Infinity!,Talk:Austrian business cycle theory,
2010-05-17T09:13:25+00:00,362584867,362584671,1,QE2Infinity!,Talk:Austrian business cycle theory,
2010-05-17T09:00:49+00:00,362583727,362583419,1,QE2Infinity!,Talk:Austrian business cycle theory,
2010-05-17T08:59:18+00:00,362583569,362583300,1,QE2Infinity!,Austrian business cycle theory,Undid revision 362583300 by [[Special:Contributions/BigK HeX|BigK HeX]] ([[User talk:BigK HeX|talk]])  This issue is discussed on the talk page - having already been resolved months ago
2010-05-17T08:57:39+00:00,362583419,362583374,1,QE2Infinity!,Talk:Austrian business cycle theory,
2010-05-17T08:57:10+00:00,362583374,362583323,1,QE2Infinity!,Talk:Austrian business cycle theory,
2010-05-17T08:56:42+00:00,362583323,362583277,1,QE2Infinity!,Talk:Austrian business cycle theory,
2010-05-17T08:56:11+00:00,362583277,362583181,1,QE2Infinity!,Talk:Austrian business cycle theory,
2010-05-17T08:55:07+00:00,362583181,362582902,1,QE2Infinity!,Talk:Austrian business cycle theory,
2010-05-17T08:51:55+00:00,362582902,362581425,1,QE2Infinity!,Talk:Austrian business cycle theory,
2010-05-17T08:47:14+00:00,362582486,362582068,1,QE2Infinity!,Austrian business cycle theory,/* Assertions */  Milton already in Critiques section.  No need for repeat in Assertions
2010-05-17T08:42:31+00:00,362582068,362581993,1,QE2Infinity!,Austrian business cycle theory,typo
2010-05-17T08:41:42+00:00,362581993,362581593,1,QE2Infinity!,Austrian business cycle theory,More refs
2010-05-17T08:37:10+00:00,362581593,362581488,1,QE2Infinity!,Austrian business cycle theory,/* Assertions */  More useless commentary removed
2010-05-17T08:36:03+00:00,362581488,362581305,1,QE2Infinity!,Austrian business cycle theory,/* Assertions */  See archived talk pages.  Theory's proponents completely redundant and this was already resolved on the talk pages.  Latecomers should always read talk page discussion - incl archive
2010-05-17T08:34:17+00:00,362581305,362581137,1,QE2Infinity!,Austrian business cycle theory,/* Assertions */  Better ref
2010-05-17T08:32:21+00:00,362581137,362580877,1,QE2Infinity!,Austrian business cycle theory,"/* Assertions */  Remove ""Austrians assert...""  etc etc.  This was dealt with and resolved months ago in the talk pages."
2010-05-17T08:29:15+00:00,362580877,362580705,1,QE2Infinity!,Austrian business cycle theory,"Lede discussed ad nauseum.  Please don't mess with lede again and again.  Everyone knows it's an Austrian explanation, so it's not mainstream."
2010-05-17T08:27:26+00:00,362580705,362580494,1,QE2Infinity!,Austrian business cycle theory,
2010-05-17T08:24:37+00:00,362580494,362580357,1,QE2Infinity!,Austrian business cycle theory,/* Assertions */  Refs
2010-05-17T08:22:59+00:00,362580357,362579938,1,QE2Infinity!,Austrian business cycle theory,"Clean up, refs (lots of them).  See talk page discussion.  It was already decided to do away with ""Austrians assert..."" etc etc with an ""ASSERTIONS"" section"
2010-05-17T08:17:37+00:00,362579938,362579882,1,QE2Infinity!,Austrian business cycle theory,
2010-05-17T08:16:55+00:00,362579882,362579630,1,QE2Infinity!,Austrian business cycle theory,Ref
2010-05-17T08:13:59+00:00,362579630,362579272,1,QE2Infinity!,Austrian business cycle theory,Any freshman in accounting or economics 101 knows about discounted cash flow.  It's in the Wikilink itself.  Added refs also
2010-05-17T08:07:15+00:00,362579064,361422221,1,QE2Infinity!,Talk:Austrian business cycle theory,
2010-05-17T08:04:50+00:00,362578875,362578799,1,QE2Infinity!,Austrian business cycle theory,/* Critiques */  Can you believe Caplan is already in the criticisms section?  I've re-positioned the repeated statement of the critique
2010-05-17T08:03:57+00:00,362578799,362578700,1,QE2Infinity!,Austrian business cycle theory,/* Critiques */  There it is!
2010-05-17T08:02:44+00:00,362578700,362578192,1,QE2Infinity!,Austrian business cycle theory,"/* Assertions */  This is about ABCT, BigK.  There is a criticisms section.  I'll show it to you..."
2010-05-17T07:53:57+00:00,362577943,362577813,1,QE2Infinity!,Austrian business cycle theory,"BigK Hex, your edit didn't work.  Please check show preview first and try again"
2010-05-17T07:52:17+00:00,362577813,362577764,1,QE2Infinity!,Austrian business cycle theory,/* Assertions */  another obvious typo
2010-05-17T06:30:28+00:00,362571501,362571446,1,QE2Infinity!,Austrian business cycle theory,/* Assertions */
2010-05-17T06:29:38+00:00,362571446,362571399,1,QE2Infinity!,Austrian business cycle theory,/* Assertions */
2010-05-17T06:28:55+00:00,362571399,362520904,1,QE2Infinity!,Austrian business cycle theory,/* Assertions */  tidy ups
2010-05-17T03:27:30+00:00,362552679,360413672,1,QE2Infinity!,Austrian school of economics,minor grammar and expression
2010-05-16T23:28:43+00:00,362520904,362354710,1,QE2Infinity!,Austrian business cycle theory,obvious typo
2010-05-15T08:20:47+00:00,362232461,362196439,1,QE2Infinity!,Austrian business cycle theory,/* Assertions */ typo
2010-05-15T05:29:16+00:00,362218034,0,1,QE2Infinity!,User:QE2Infinity!,[[WP:AES|←]]Created page with 'And gold to fly with it'
2010-05-15T05:06:03+00:00,362215980,362194478,1,QE2Infinity!,Systemic risk,
2010-05-15T01:31:16+00:00,362194478,362192326,1,QE2Infinity!,Systemic risk,
2010-05-15T01:14:46+00:00,362192326,362189588,1,QE2Infinity!,Systemic risk,Ref
2010-05-15T00:52:46+00:00,362189588,362189313,1,QE2Infinity!,Systemic risk,/* Explanation */  Further ref
2010-05-15T00:50:34+00:00,362189313,362189031,1,QE2Infinity!,Systemic risk,Clean up
2010-05-15T00:48:12+00:00,362189031,362071819,1,QE2Infinity!,Systemic risk,Not RS and not NPOV.  Also OR.
2019-11-25T23:43:30+00:00,927970980,927682980,1,RandyAndyPandy,Austrian school of economics,"Undid revision 927682980 by [[Special:Contributions/Ian.thomson|Ian.thomson]] ([[User talk:Ian.thomson|talk]])  Forbes supported in the sense that they would not host Alex Jones on their website, would they?  Clearly reliable source."
2019-11-24T02:35:05+00:00,927681306,927359918,1,RandyAndyPandy,Talk:Pizzagate conspiracy theory,"/* Semi-protected edit request on 24 November 2019 Infowars section - ""as"" should be ""or"".  It's an obvious typo. */ new section"
2019-11-24T01:52:14+00:00,927676741,0,1,RandyAndyPandy,User talk:RandyAndyPandy,[[WP:AES|←]]Created page with '10 more.'
2019-11-24T01:51:32+00:00,927676668,0,1,RandyAndyPandy,User:RandyAndyPandy,[[WP:AES|←]]Created page with 'Leave it to Beaver.'
2019-11-24T01:50:56+00:00,927676607,927676537,1,RandyAndyPandy,Austrian school of economics,/* Spontaneous Order */
2019-11-24T01:50:16+00:00,927676537,920008469,1,RandyAndyPandy,Austrian school of economics,
2007-12-29T23:54:30+00:00,180885046,180884906,1,Rememberkarma,Wikipedia:Articles for deletion/Debt money,/* Debt money */
2007-12-29T23:53:33+00:00,180884906,180821235,1,Rememberkarma,Wikipedia:Articles for deletion/Debt money,/* Debt money */
2007-12-29T23:15:19+00:00,180879212,180860332,1,Rememberkarma,Criticism of fractional-reserve banking,Simple and Obvious Vandalism (again).  Please discuss on the talk page before any further amendments are attempted.  Thank you.
2007-12-16T03:05:14+00:00,178216755,178215150,1,Rememberkarma,Criticism of fractional-reserve banking,Adding a couple of cites to keep Gregalton happy...
2007-12-16T02:53:21+00:00,178215150,178202278,1,Rememberkarma,Criticism of fractional-reserve banking,
2007-12-15T12:28:36+00:00,178065528,178065271,1,Rememberkarma,Criticism of fractional-reserve banking,
2007-12-15T12:16:40+00:00,178064499,178063167,1,Rememberkarma,Criticism of fractional-reserve banking,"Many sentences now deleted.  Removed ""too long"" comment as now inapplicable.  Can be re-inserted by Gentleman Gregalton if he so desires."
2007-12-15T12:00:35+00:00,178063167,178062979,1,Rememberkarma,Criticism of fractional-reserve banking,/* Basic nature of system */
2007-12-15T11:57:57+00:00,178062979,178062922,1,Rememberkarma,Criticism of fractional-reserve banking,/* Basic nature of system */
2007-12-15T11:57:05+00:00,178062922,178062867,1,Rememberkarma,Criticism of fractional-reserve banking,/* Basic nature of system */
2007-12-15T11:56:37+00:00,178062867,178062345,1,Rememberkarma,Criticism of fractional-reserve banking,/* Basic nature of system */
2007-12-15T11:50:43+00:00,178062345,178062145,1,Rememberkarma,Criticism of fractional-reserve banking,
2007-12-15T11:48:07+00:00,178062145,178058076,1,Rememberkarma,Criticism of fractional-reserve banking,/* Basic nature of system */
2007-12-15T10:58:30+00:00,178058076,178048219,1,Rememberkarma,Criticism of fractional-reserve banking,/* Basic debate */
2007-12-15T10:49:17+00:00,178057441,177105831,1,Rememberkarma,Credit tightening,"Montco, you know the deal..."
2007-12-15T09:39:22+00:00,178052044,178051266,1,Rememberkarma,User talk:EGeek,
2007-12-15T09:29:39+00:00,178051266,178048630,1,Rememberkarma,User talk:EGeek,
2007-12-15T08:54:43+00:00,178048630,0,1,Rememberkarma,User talk:EGeek,[[WP:AES|←]]Created page with 'Thanks for the clean-up on credit crunch.  Hope the comment on debt-based monetary system is OK - I really (genuinely) didn't understand your comment about the arti...'
2007-12-15T08:42:26+00:00,178047766,178046630,1,Rememberkarma,Criticism of fractional-reserve banking,"This deletion was bizarre.  The cite confirms the statement EXACTLY (monetary reformers DO refer to the gold standard as honest money).  Disclaimer is irrevelant (it's on all ""investment"" websites).."
2007-12-15T08:26:50+00:00,178046630,178045780,1,Rememberkarma,Criticism of fractional-reserve banking,
2007-12-15T08:16:58+00:00,178045780,178045681,1,Rememberkarma,Criticism of fractional-reserve banking,/* Economic and political criticisms */
2007-12-15T08:15:36+00:00,178045681,178045595,1,Rememberkarma,Criticism of fractional-reserve banking,/* Economic and political criticisms */
2007-12-15T08:14:21+00:00,178045595,178045502,1,Rememberkarma,Criticism of fractional-reserve banking,Woops.  This makes sense now.
2007-12-15T08:13:07+00:00,178045502,178045266,1,Rememberkarma,Criticism of fractional-reserve banking,"""arable land"" WP entry is effectively the source for the statement.  Gregalton - please request citation on that entry before requiring it on this."
2007-12-15T08:10:03+00:00,178045266,178045048,1,Rememberkarma,Criticism of fractional-reserve banking,Comment is taken straight from the WP arable land entry.  Surely the citation requirement should be on that entry - which it isn't.  Gregalton - go to work!
2007-12-15T08:07:26+00:00,178045048,178044496,1,Rememberkarma,Criticism of fractional-reserve banking,
2007-12-15T07:57:36+00:00,178044220,178043255,1,Rememberkarma,Criticism of fractional-reserve banking,Gregalton requests citations - and then deletes those the doesn't like??  This one is excellent and captures both the history AND the on-going debate.  Why was it deleted?
2007-12-15T07:46:57+00:00,178043255,178042882,1,Rememberkarma,Criticism of fractional-reserve banking,
2007-12-15T07:42:43+00:00,178042882,178042783,1,Rememberkarma,Criticism of fractional-reserve banking,
2007-12-15T07:41:48+00:00,178042783,178042326,1,Rememberkarma,Criticism of fractional-reserve banking,Added self-evident citations and removed citation requirement where all (or nearly all) sentences in the section are covered.  Citation requirement can be put back on any section if Gregalton insists
2007-12-15T07:37:10+00:00,178042326,178042256,1,Rememberkarma,Criticism of fractional-reserve banking,/* Potential societal impact */
2007-12-15T07:36:40+00:00,178042256,178042105,1,Rememberkarma,Criticism of fractional-reserve banking,/* Inherent problems with system */
2007-12-15T07:35:15+00:00,178042105,178042040,1,Rememberkarma,Criticism of fractional-reserve banking,/* Potential solutions */
2007-12-15T07:34:24+00:00,178042040,178042003,1,Rememberkarma,Criticism of fractional-reserve banking,/* Inequities in system */
2007-12-15T07:34:00+00:00,178042003,178041933,1,Rememberkarma,Criticism of fractional-reserve banking,/* Types of downturns */
2007-12-15T07:33:20+00:00,178041933,178041722,1,Rememberkarma,Criticism of fractional-reserve banking,/* Basic nature of system */
2007-12-15T07:31:05+00:00,178041722,178041244,1,Rememberkarma,Criticism of fractional-reserve banking,
2007-12-15T07:26:22+00:00,178041244,178041031,1,Rememberkarma,Criticism of fractional-reserve banking,
2007-12-15T07:24:13+00:00,178041031,178040757,1,Rememberkarma,Criticism of fractional-reserve banking,
2007-12-15T07:20:43+00:00,178040757,178040609,1,Rememberkarma,Criticism of fractional-reserve banking,
2007-12-15T07:19:08+00:00,178040609,178040358,1,Rememberkarma,Criticism of fractional-reserve banking,/* Basic nature of system */
2007-12-15T07:16:28+00:00,178040358,178039863,1,Rememberkarma,Criticism of fractional-reserve banking,/* Basic nature of system */
2007-12-15T07:11:26+00:00,178039863,178039452,1,Rememberkarma,Criticism of fractional-reserve banking,Ridiculous requirement deleted.  You can't have a reference for a statement of non-existence which is self-evident (just one illustration of the unreasonableness of Gregalton's citation requirements)
2007-12-15T07:07:16+00:00,178039452,178039130,1,Rememberkarma,Criticism of fractional-reserve banking,/* Political and legal solutions */
2007-12-15T07:03:53+00:00,178039130,178037403,1,Rememberkarma,Criticism of fractional-reserve banking,/* Effects on economic health */
2007-12-15T06:48:02+00:00,178037403,178011336,1,Rememberkarma,Criticism of fractional-reserve banking,
2007-12-15T03:09:02+00:00,178011336,178011145,1,Rememberkarma,Criticism of fractional-reserve banking,
2007-12-15T03:07:45+00:00,178011145,178010731,1,Rememberkarma,Criticism of fractional-reserve banking,
2007-12-15T03:05:04+00:00,178010731,177910207,1,Rememberkarma,Criticism of fractional-reserve banking,
2007-11-14T02:17:47+00:00,171345738,171343836,1,Rememberkarma,Credit crunch,/* External links */
2007-11-14T02:06:06+00:00,171343836,171331525,1,Rememberkarma,Credit crunch,/* External links */
2007-11-14T00:58:30+00:00,171331525,171330594,1,Rememberkarma,Credit crunch,
2007-11-13T04:16:54+00:00,171128054,171066182,1,Rememberkarma,Credit crunch,/* External links */
2007-11-12T23:02:33+00:00,171066182,171065997,1,Rememberkarma,Credit crunch,/* External links */
2007-11-12T23:01:39+00:00,171065997,171065508,1,Rememberkarma,Credit crunch,/* External links */
2007-11-12T22:59:13+00:00,171065508,171063375,1,Rememberkarma,Credit crunch,/* External links */
2007-11-12T22:49:51+00:00,171063375,171033105,1,Rememberkarma,Credit crunch,/* External links */
2007-11-12T03:22:16+00:00,170889625,170234250,1,Rememberkarma,Credit crunch,
2007-11-09T04:58:55+00:00,170263578,168794530,1,Rememberkarma,Business cycle,/* See also */
2007-11-09T04:56:52+00:00,170263285,167128974,1,Rememberkarma,Credit cycle,
2007-11-09T04:47:46+00:00,170262111,170261792,1,Rememberkarma,Credit tightening,/* External links */
2007-11-09T04:45:31+00:00,170261792,164006733,1,Rememberkarma,Credit tightening,
2007-11-09T02:07:19+00:00,170234250,170020029,1,Rememberkarma,Credit crunch,/* External links */
2007-11-07T05:26:12+00:00,169793341,169792931,1,Rememberkarma,Credit crunch,/* External links */
2007-11-07T05:23:22+00:00,169792931,169557905,1,Rememberkarma,Credit crunch,/* External links */
2007-11-06T07:26:51+00:00,169557905,169557862,1,Rememberkarma,Credit crunch,/* External links */
2007-11-06T07:26:21+00:00,169557862,169548856,1,Rememberkarma,Credit crunch,/* External links */
2007-11-06T05:55:44+00:00,169548856,169548647,1,Rememberkarma,Credit crunch,/* External links */
2007-11-06T05:54:00+00:00,169548647,169372836,1,Rememberkarma,Credit crunch,
2007-11-02T07:37:18+00:00,168686206,168686064,1,Rememberkarma,Credit crunch,
2007-11-02T07:35:46+00:00,168686064,168682630,1,Rememberkarma,Credit crunch,
2007-11-02T06:55:58+00:00,168682630,168669330,1,Rememberkarma,Credit crunch,/* External links */
2007-11-02T04:53:33+00:00,168669330,168664541,1,Rememberkarma,Credit crunch,
2007-11-02T04:15:15+00:00,168664541,168663614,1,Rememberkarma,Credit crunch,/* External links */
2007-11-02T04:07:48+00:00,168663614,168395057,1,Rememberkarma,Credit crunch,/* External links */
2007-10-31T22:36:58+00:00,168395057,168237054,1,Rememberkarma,Credit crunch,/* External links */
2007-10-31T03:58:40+00:00,168237054,168236980,1,Rememberkarma,Credit crunch,/* External links */
2007-10-31T03:58:07+00:00,168236980,168201291,1,Rememberkarma,Credit crunch,/* External links */
2007-10-31T00:20:47+00:00,168201291,168177976,1,Rememberkarma,Credit crunch,
2007-10-30T22:20:57+00:00,168177976,168063115,1,Rememberkarma,Credit crunch,
2007-10-30T12:24:57+00:00,168063115,168061991,1,Rememberkarma,Credit crunch,/* External links */
2007-10-30T12:15:24+00:00,168061991,167979209,1,Rememberkarma,Credit crunch,
2007-10-30T00:52:16+00:00,167979209,167978803,1,Rememberkarma,Credit crunch,/* External links */
2007-10-30T00:50:17+00:00,167978803,167782666,1,Rememberkarma,Credit crunch,
2007-10-28T22:48:18+00:00,167721892,167615972,1,Rememberkarma,Credit crunch,/* External links */
2007-10-27T12:36:04+00:00,167419532,167419289,1,Rememberkarma,Talk:Credit crunch,/* First reference credible? Definition of credit crunch? */
2007-10-27T12:33:45+00:00,167419289,167417537,1,Rememberkarma,Talk:Credit crunch,/* First reference credible? Definition of credit crunch? */
2007-10-27T12:32:31+00:00,167419168,167159714,1,Rememberkarma,Credit crunch,
2007-10-27T12:16:09+00:00,167417537,167417473,1,Rememberkarma,Talk:Credit crunch,/* First reference credible? Definition of credit crunch? */
2007-10-27T12:15:34+00:00,167417473,166684400,1,Rememberkarma,Talk:Credit crunch,/* First reference credible? Definition of credit crunch? */
2007-10-24T04:47:27+00:00,166684400,166682846,1,Rememberkarma,Talk:Credit crunch,/* First reference credible? Definition of credit crunch? */
2007-10-24T04:35:32+00:00,166682846,166673166,1,Rememberkarma,Talk:Credit crunch,/* First reference credible? Definition of credit crunch? */
2007-10-24T03:24:19+00:00,166673166,166672437,1,Rememberkarma,Talk:Credit crunch,/* First reference credible? Definition of credit crunch? */
2007-10-24T03:18:37+00:00,166672437,166671760,1,Rememberkarma,Talk:Credit crunch,/* First reference credible? Definition of credit crunch? */
2007-10-24T03:11:58+00:00,166671528,166301146,1,Rememberkarma,Talk:Credit crunch,/* First reference credible? Definition of credit crunch? */
2007-10-05T12:09:20+00:00,162441217,162175576,1,Rememberkarma,Credit crunch,
2007-10-03T14:50:58+00:00,162022928,162022830,1,Rememberkarma,Liquidity crisis,
2007-10-03T14:50:28+00:00,162022830,162022062,1,Rememberkarma,Liquidity crisis,
2007-10-03T14:46:20+00:00,162022062,162021959,1,Rememberkarma,Liquidity crisis,
2007-10-03T14:45:48+00:00,162021959,0,1,Rememberkarma,Liquidity crisis,"[[WP:AES|←]]Created page with 'A ""[[liquidity crisis]]"" occurs when an otherwise viable business experiences a temporary inability to access the [[credit]] required to grow the business or smooth...'"
2007-04-22T00:59:04+00:00,124751512,124751208,1,Rememberkarma,Criticism of fractional-reserve banking,
2007-04-22T00:57:40+00:00,124751208,124750440,1,Rememberkarma,Criticism of fractional-reserve banking,
2007-04-22T00:54:15+00:00,124750440,123344848,1,Rememberkarma,Criticism of fractional-reserve banking,
2006-05-18T07:53:01+00:00,53825013,53824966,1,Rememberkarma,Criticism of fractional-reserve banking,
2006-05-18T07:52:25+00:00,53824966,53824906,1,Rememberkarma,Criticism of fractional-reserve banking,
2006-05-18T07:51:33+00:00,53824906,0,1,Rememberkarma,Criticism of fractional-reserve banking,
2019-11-16T04:41:55+00:00,926407864,924275063,1,RIPRogerStone,Fractional-reserve banking,/* Criticisms on the basis of legitimacy */
2019-11-16T04:41:05+00:00,926407787,926407707,1,RIPRogerStone,Austrian business cycle theory,"/* ""Malinvestment"" and ""boom"" */"
2019-11-16T04:40:04+00:00,926407707,921236553,1,RIPRogerStone,Austrian business cycle theory,"/* ""Malinvestment"" and ""boom"" */"
2008-11-18T11:06:48+00:00,252548739,252548241,1,Ron_Paul...Ron_Paul...,Systemic risk,/* Explanation */
2008-11-18T11:04:23+00:00,252548510,252089580,1,Ron_Paul...Ron_Paul...,Talk:Systemic risk,"/* Alchemy of Finance: Poorly expressed, few citations, to cleaner, more citations */"
2008-11-18T11:01:47+00:00,252548241,252548063,1,Ron_Paul...Ron_Paul...,Systemic risk,/* Explanation */
2008-11-18T10:59:51+00:00,252548063,252547882,1,Ron_Paul...Ron_Paul...,Systemic risk,"/* Explanation */  Many typos, grammatical issues.  Tidying up now.  Why didn't I see these yesterday???"
2008-11-18T10:57:57+00:00,252547882,252547707,1,Ron_Paul...Ron_Paul...,Systemic risk,/* Explanation */
2008-11-18T10:56:03+00:00,252547707,252090632,1,Ron_Paul...Ron_Paul...,Systemic risk,/* Explanation */
2008-11-18T10:15:49+00:00,252543708,252484585,1,Ron_Paul...Ron_Paul...,User talk:Ron Paul...Ron Paul...,/* Paranoia */
2008-11-18T07:13:50+00:00,252526956,252526906,1,Ron_Paul...Ron_Paul...,Monetary reform,
2008-11-18T07:13:18+00:00,252526906,252526862,1,Ron_Paul...Ron_Paul...,Monetary reform,
2008-11-18T07:12:44+00:00,252526862,252526823,1,Ron_Paul...Ron_Paul...,Monetary reform,
2008-11-18T07:12:18+00:00,252526823,252526680,1,Ron_Paul...Ron_Paul...,Monetary reform,
2008-11-18T07:10:37+00:00,252526680,252106636,1,Ron_Paul...Ron_Paul...,Monetary reform,
2008-11-18T05:18:54+00:00,252514853,250604734,1,Ron_Paul...Ron_Paul...,Credit tightening,
2008-11-18T04:47:43+00:00,252511118,252511041,1,Ron_Paul...Ron_Paul...,Talk:Libertarianism,/* Sock puppets form their own committees to influence editing= */
2008-11-18T04:45:42+00:00,252510892,252469837,1,Ron_Paul...Ron_Paul...,Talk:Libertarianism,/* Sock puppets form their own committees to influence editing= */
2008-11-18T01:53:28+00:00,252484585,252469281,1,Ron_Paul...Ron_Paul...,User talk:Ron Paul...Ron Paul...,
2008-11-17T23:18:14+00:00,252462284,252461059,1,Ron_Paul...Ron_Paul...,Talk:Libertarianism,/* Libertarianism...by committee? How ironic */
2008-11-17T23:11:44+00:00,252461059,252370271,1,Ron_Paul...Ron_Paul...,Talk:Libertarianism,/* Libertarianism...by committee? How ironic */
2008-11-17T11:08:30+00:00,252343225,252338422,1,Ron_Paul...Ron_Paul...,Talk:Libertarianism,/* Libertarianism...by committee? How ironic */
2008-11-17T10:58:14+00:00,252342214,252341921,1,Ron_Paul...Ron_Paul...,Libertarianism,/* Origins */  Wiktionary link didn't work.  Try again or check the preview box before accepting....
2008-11-17T10:55:28+00:00,252341921,252254660,1,Ron_Paul...Ron_Paul...,Libertarianism,Please keep it.  There's lots to improve below.  I'm happy to compromise where the request is reasonable. Like now. Why dilute this further and turn off the newbies?
2008-11-17T10:44:50+00:00,252340924,252142610,1,Ron_Paul...Ron_Paul...,Talk:Austrian business cycle theory,Sorry.  I sometimes forget.  I'll keep signing off until I'm barred by the bullies again.  I already have a new name lined up.  This next one will be the best by far...
2008-11-17T10:17:04+00:00,252338422,252337799,1,Ron_Paul...Ron_Paul...,Talk:Libertarianism,/* Libertarianism...by committee? How ironic */
2008-11-17T10:10:42+00:00,252337799,252337719,1,Ron_Paul...Ron_Paul...,Talk:Libertarianism,/* Libertarianism...by committee? How ironic */
2008-11-17T10:09:55+00:00,252337719,252337507,1,Ron_Paul...Ron_Paul...,Talk:Libertarianism,/* Libertarianism...by committee? How ironic */
2008-11-17T10:07:37+00:00,252337507,252336650,1,Ron_Paul...Ron_Paul...,Talk:Libertarianism,/* Libertarianism...by committee? How ironic */
2008-11-17T09:59:39+00:00,252336650,252335803,1,Ron_Paul...Ron_Paul...,Talk:Libertarianism,/* Libertarianism...by committee? How ironic */
2008-11-17T09:50:48+00:00,252335803,252335461,1,Ron_Paul...Ron_Paul...,Talk:Libertarianism,/* Libertarianism...by committee? How ironic */
2008-11-17T06:43:27+00:00,252316869,252313832,1,Ron_Paul...Ron_Paul...,Talk:Libertarianism,/* Libertarianism...by committee? How ironic */
2008-11-17T06:14:56+00:00,252313683,252144252,1,Ron_Paul...Ron_Paul...,Talk:Libertarianism,/* Libertarianism...by committee? How ironic */
2008-11-16T06:30:49+00:00,252110897,252110411,1,Ron_Paul...Ron_Paul...,Libertarianism,There are no alternatives for the Libertarian....
2008-11-16T06:25:41+00:00,252110411,252110226,1,Ron_Paul...Ron_Paul...,Libertarianism,Don't know which one works better....happy to go with either....
2008-11-16T06:23:53+00:00,252110226,252110117,1,Ron_Paul...Ron_Paul...,Libertarianism,punchier
2008-11-16T06:22:53+00:00,252110117,251751284,1,Ron_Paul...Ron_Paul...,Libertarianism,(minor) elimination of fluff...
2008-11-16T05:55:41+00:00,252107285,251883815,1,Ron_Paul...Ron_Paul...,Talk:Fractional-reserve banking,/* Recent edits (5th November) */
2008-11-16T05:49:51+00:00,252106636,252057167,1,Ron_Paul...Ron_Paul...,Monetary reform,
2008-11-16T03:57:54+00:00,252092127,252091963,1,Ron_Paul...Ron_Paul...,Bank run,/* Systemic banking crises */
2008-11-16T03:56:46+00:00,252091963,251341812,1,Ron_Paul...Ron_Paul...,Bank run,/* Systemic banking crises */
2008-11-16T03:47:22+00:00,252090632,252090285,1,Ron_Paul...Ron_Paul...,Systemic risk,/* Explanation */
2008-11-16T03:44:48+00:00,252090285,252090129,1,Ron_Paul...Ron_Paul...,Systemic risk,/* Explanation */
2008-11-16T03:43:33+00:00,252090129,252090002,1,Ron_Paul...Ron_Paul...,Systemic risk,/* Explanation */
2008-11-16T03:42:40+00:00,252090002,252089713,1,Ron_Paul...Ron_Paul...,Systemic risk,/* Explanation */
2008-11-16T03:40:41+00:00,252089713,252088924,1,Ron_Paul...Ron_Paul...,Systemic risk,
2008-11-16T03:38:22+00:00,252089357,244445584,1,Ron_Paul...Ron_Paul...,Talk:Systemic risk,/* Specific sources of systemic risk */
2008-11-16T03:35:22+00:00,252088924,252088869,1,Ron_Paul...Ron_Paul...,Systemic risk,
2008-11-16T03:35:03+00:00,252088869,252088454,1,Ron_Paul...Ron_Paul...,Systemic risk,
2008-11-16T03:32:19+00:00,252088454,252088359,1,Ron_Paul...Ron_Paul...,Systemic risk,
2008-11-16T03:31:39+00:00,252088359,252087633,1,Ron_Paul...Ron_Paul...,Systemic risk,
2008-11-14T23:14:53+00:00,251862224,251720471,1,Ron_Paul...Ron_Paul...,User talk:Ron Paul...Ron Paul...,/* Editing style */
2008-11-14T23:06:13+00:00,251860863,251860279,1,Ron_Paul...Ron_Paul...,Austrian business cycle theory,Clean up lede slightly.  Expression only.
2008-11-14T23:02:48+00:00,251860279,251715507,1,Ron_Paul...Ron_Paul...,Austrian business cycle theory,minor clean up
2008-11-14T22:47:43+00:00,251857712,251856465,1,Ron_Paul...Ron_Paul...,Austrian school of economics,"Added ""comparatively"" - meaning compared to the early years.  Menger and Bohm-Bawerk thought ""truth"" would win out, and ""allowed"" the School to collapse.  They should have fought much harder."
2008-11-14T22:38:16+00:00,251856040,251855901,1,Ron_Paul...Ron_Paul...,Talk:Paul Krugman,/* Excess weight on Austrian critics */
2008-11-14T22:37:27+00:00,251855901,251513958,1,Ron_Paul...Ron_Paul...,Talk:Paul Krugman,/* Excess weight on Austrian critics */
2008-11-14T21:37:09+00:00,251845431,251845299,1,Ron_Paul...Ron_Paul...,Embezzlement,
2008-11-14T21:36:23+00:00,251845299,251264477,1,Ron_Paul...Ron_Paul...,Embezzlement,
2008-11-14T11:55:20+00:00,251751284,251709121,1,Ron_Paul...Ron_Paul...,Libertarianism,"""which"" or ""that""? Both are awkward.  Which is often used incorrectly, such as here.  It shouldn't be used interchangeably with ""that"".  Neither is needed.  Let's take both out.  It still works."
2008-11-14T11:37:59+00:00,251749659,251692514,1,Ron_Paul...Ron_Paul...,Criticism of fractional-reserve banking,
2008-11-14T11:05:49+00:00,251746705,240794300,1,Ron_Paul...Ron_Paul...,User talk:Misessus,Are you still alive?  You haven't been editing at all.  I'm worried for you.  Please don't respond on my talk page.  Just make a minor edit on inflation or monetary inflation if you're still around.
2008-11-14T06:11:45+00:00,251720902,251569283,1,Ron_Paul...Ron_Paul...,User talk:Cretog8,/* Comparative advantage */
2008-11-14T06:00:15+00:00,251719846,251719348,1,Ron_Paul...Ron_Paul...,Talk:Austrian business cycle theory,/* ABCT Is Incorrect */
2008-11-14T05:55:15+00:00,251719348,251719298,1,Ron_Paul...Ron_Paul...,Talk:Austrian business cycle theory,/* ABCT Is Incorrect */
2008-11-14T05:54:40+00:00,251719298,251719086,1,Ron_Paul...Ron_Paul...,Talk:Austrian business cycle theory,/* ABCT Is Incorrect */
2008-11-14T05:51:27+00:00,251719023,251718985,1,Ron_Paul...Ron_Paul...,Talk:Austrian business cycle theory,/* ABCT Is Incorrect */
2008-11-14T05:50:55+00:00,251718985,251718956,1,Ron_Paul...Ron_Paul...,Talk:Austrian business cycle theory,/* ABCT Is Incorrect */
2008-11-14T05:50:40+00:00,251718956,251718713,1,Ron_Paul...Ron_Paul...,Talk:Austrian business cycle theory,/* ABCT Is Incorrect */
2008-11-14T05:48:06+00:00,251718713,251718288,1,Ron_Paul...Ron_Paul...,Talk:Austrian business cycle theory,/* ABCT Is Incorrect */
2008-11-14T02:34:41+00:00,251692514,250907994,1,Ron_Paul...Ron_Paul...,Criticism of fractional-reserve banking,
2008-11-13T12:23:38+00:00,251543717,251543593,1,Ron_Paul...Ron_Paul...,Talk:Libertarianism,/* Libertarianism...by committee? How ironic */
2008-11-13T12:22:15+00:00,251543593,251458605,1,Ron_Paul...Ron_Paul...,Talk:Libertarianism,/* Libertarianism...by committee? How ironic */
2008-11-13T11:36:41+00:00,251538989,251538797,1,Ron_Paul...Ron_Paul...,Talk:Austrian business cycle theory,/* ABCT Is Incorrect */
2008-11-13T11:34:56+00:00,251538797,251480268,1,Ron_Paul...Ron_Paul...,Talk:Austrian business cycle theory,/* ABCT Is Incorrect */
2008-11-13T10:56:51+00:00,251535060,251534888,1,Ron_Paul...Ron_Paul...,Talk:Austrian school of economics,/* Lede section */
2008-11-13T10:54:57+00:00,251534888,251534850,1,Ron_Paul...Ron_Paul...,Talk:Austrian school of economics,/* Lede section */
2008-11-13T10:54:37+00:00,251534850,251532858,1,Ron_Paul...Ron_Paul...,Talk:Austrian school of economics,/* Lede section */
2008-11-13T10:44:41+00:00,251533943,251533870,1,Ron_Paul...Ron_Paul...,Austrian school of economics,"OK, but then let's put in ""early supporters"" to avoid confusing people.  They'll keep asking ""where are the German speaking Austrian economists?"""
2008-11-13T10:37:45+00:00,251533218,251533154,1,Ron_Paul...Ron_Paul...,Paul Krugman,/* Criticism */
2008-11-13T10:37:10+00:00,251533154,251532988,1,Ron_Paul...Ron_Paul...,Paul Krugman,
2008-11-13T10:35:25+00:00,251532988,251299738,1,Ron_Paul...Ron_Paul...,Paul Krugman,"Come on guys, it's in the criticism section.  He is not God.  A (short) list of the key critics is perfectly reasonable, especially given his controversial (political) views.  JQ's hypersenstive."
2008-11-13T10:27:00+00:00,251532132,251532049,1,Ron_Paul...Ron_Paul...,Talk:Austrian school of economics,/* Lede section */
2008-11-13T10:26:18+00:00,251532049,251524624,1,Ron_Paul...Ron_Paul...,Talk:Austrian school of economics,/* Lede section */
2008-11-13T10:21:08+00:00,251531518,251531340,1,Ron_Paul...Ron_Paul...,Austrian school of economics,
2008-11-13T09:04:59+00:00,251523842,251523816,1,Ron_Paul...Ron_Paul...,Talk:Austrian school of economics,/* Lede section */
2008-11-13T09:04:41+00:00,251523816,251523786,1,Ron_Paul...Ron_Paul...,Talk:Austrian school of economics,/* Lede section */
2008-11-13T09:04:21+00:00,251523786,251514170,1,Ron_Paul...Ron_Paul...,Talk:Austrian school of economics,/* Lede section */
2008-11-13T07:08:36+00:00,251512530,251512440,1,Ron_Paul...Ron_Paul...,Talk:Austrian school of economics,/* Discussion */
2008-11-13T07:07:41+00:00,251512440,251510209,1,Ron_Paul...Ron_Paul...,Talk:Austrian school of economics,/* Discussion */
2008-11-13T07:02:48+00:00,251512007,251508987,1,Ron_Paul...Ron_Paul...,Austrian school of economics,Other than first section....
2008-11-13T06:42:35+00:00,251509982,251507938,1,Ron_Paul...Ron_Paul...,Talk:Austrian school of economics,/* Discussion */
2008-11-13T06:33:39+00:00,251508987,251500034,1,Ron_Paul...Ron_Paul...,Austrian school of economics,Your penultimate version left until further notice from WP guardians...
2008-11-13T06:19:15+00:00,251507550,251502557,1,Ron_Paul...Ron_Paul...,Talk:Austrian school of economics,/* Critical */
2008-11-13T06:09:26+00:00,251506524,251505079,1,Ron_Paul...Ron_Paul...,User talk:Skomorokh,/* DYK for Manifesto of the Sixteen */
2008-11-13T05:33:07+00:00,251502403,251502284,1,Ron_Paul...Ron_Paul...,Talk:Austrian school of economics,/* Critical */
2008-11-13T05:32:06+00:00,251502284,251500749,1,Ron_Paul...Ron_Paul...,Talk:Austrian school of economics,/* Critical */
2008-11-13T05:19:46+00:00,251500749,251497033,1,Ron_Paul...Ron_Paul...,Talk:Austrian school of economics,/* Linkdump */
2008-11-13T05:15:06+00:00,251500034,251496727,1,Ron_Paul...Ron_Paul...,Austrian school of economics,Wholesale deleting/editing unacceptable.  EL's that are not mainstream but DIRECTLY applicable to this topic should NOT be deleted.
2008-11-13T04:14:11+00:00,251491815,251491718,1,Ron_Paul...Ron_Paul...,Austrian school of economics,
2008-11-13T04:13:31+00:00,251491718,251478286,1,Ron_Paul...Ron_Paul...,Austrian school of economics,"Please don't try to fix a School of Thought you openly oppose and believe is ""witchcraft"".  Inherently POV edits given your stated position.  Please work on mainstream."
2008-11-13T00:29:11+00:00,251452386,251113347,1,Ron_Paul...Ron_Paul...,User talk:NJGW/5,"/* Crunch, squeeze, contraction, tightening */"
2008-11-13T00:27:25+00:00,251452067,251075711,1,Ron_Paul...Ron_Paul...,Talk:Fractional-reserve banking,/* Recent edits (5th November) */
2008-11-12T23:44:04+00:00,251444832,251444429,1,Ron_Paul...Ron_Paul...,Talk:Libertarianism,
2008-11-12T23:41:25+00:00,251444429,251444288,1,Ron_Paul...Ron_Paul...,Talk:Libertarianism,
2008-11-12T23:40:37+00:00,251444288,251327913,1,Ron_Paul...Ron_Paul...,Talk:Libertarianism,
2008-11-12T12:40:42+00:00,251327913,251326154,1,Ron_Paul...Ron_Paul...,Talk:Libertarianism,
2008-11-12T12:27:31+00:00,251326154,251322481,1,Ron_Paul...Ron_Paul...,Talk:Libertarianism,
2008-11-12T12:24:41+00:00,251325764,251320964,1,Ron_Paul...Ron_Paul...,Libertarianism,
2008-11-12T11:57:24+00:00,251322481,251321154,1,Ron_Paul...Ron_Paul...,Talk:Libertarianism,
2008-11-12T11:46:50+00:00,251321154,251320580,1,Ron_Paul...Ron_Paul...,Talk:Libertarianism,/* Libertarianism...by committee? How ironic */
2008-11-12T11:45:11+00:00,251320964,251187987,1,Ron_Paul...Ron_Paul...,Libertarianism,Please see talk page.
2008-11-12T11:41:55+00:00,251320580,251320437,1,Ron_Paul...Ron_Paul...,Talk:Libertarianism,
2008-11-12T11:40:47+00:00,251320437,251320115,1,Ron_Paul...Ron_Paul...,Talk:Libertarianism,
2008-11-12T11:37:57+00:00,251320115,251319543,1,Ron_Paul...Ron_Paul...,Talk:Libertarianism,
2008-11-12T11:32:37+00:00,251319543,251319092,1,Ron_Paul...Ron_Paul...,Talk:Libertarianism,"I've never edited Zen and don't presume to.  I've edited Austrian economics, ABCT, some legal issues, FRB, that's it."
2008-11-12T11:28:38+00:00,251319092,251318691,1,Ron_Paul...Ron_Paul...,Talk:Libertarianism,/* Libertarianism...by committee? How ironic */  I overstate my knowledge of
2008-11-12T11:25:00+00:00,251318691,251317987,1,Ron_Paul...Ron_Paul...,Talk:Libertarianism,
2008-11-12T11:18:34+00:00,251317987,251317617,1,Ron_Paul...Ron_Paul...,Talk:Libertarianism,
2008-11-12T11:15:33+00:00,251317617,251317349,1,Ron_Paul...Ron_Paul...,Talk:Libertarianism,
2008-11-12T11:13:20+00:00,251317349,251317104,1,Ron_Paul...Ron_Paul...,Talk:Libertarianism,
2008-11-12T11:11:12+00:00,251317104,251316136,1,Ron_Paul...Ron_Paul...,Talk:Libertarianism,
2008-11-12T11:03:19+00:00,251316136,251188514,1,Ron_Paul...Ron_Paul...,Talk:Libertarianism,/* Libertarianism...by committee? How ironic */
2008-11-12T04:03:59+00:00,251264477,250824338,1,Ron_Paul...Ron_Paul...,Embezzlement,/* See also */
2008-11-11T11:45:10+00:00,251082551,251082446,1,Ron_Paul...Ron_Paul...,Greater fool theory,
2008-11-11T11:44:04+00:00,251082446,251082387,1,Ron_Paul...Ron_Paul...,Greater fool theory,
2008-11-11T11:43:34+00:00,251082387,251022383,1,Ron_Paul...Ron_Paul...,Greater fool theory,
2008-11-11T11:14:36+00:00,251078907,251078804,1,Ron_Paul...Ron_Paul...,Talk:Austrian business cycle theory,/* ABCT Is Incorrect */
2008-11-11T11:13:53+00:00,251078804,251072981,1,Ron_Paul...Ron_Paul...,Talk:Austrian business cycle theory,/* ABCT Is Incorrect */
2008-11-11T11:07:06+00:00,251078060,251077855,1,Ron_Paul...Ron_Paul...,Austrian business cycle theory,/* Assertions */
2008-11-11T11:04:53+00:00,251077855,251077656,1,Ron_Paul...Ron_Paul...,Austrian business cycle theory,/* Assertions */
2008-11-11T11:02:37+00:00,251077656,250764957,1,Ron_Paul...Ron_Paul...,Austrian business cycle theory,/* Assertions */
2008-11-11T10:42:58+00:00,251075711,251075573,1,Ron_Paul...Ron_Paul...,Talk:Fractional-reserve banking,/* Recent edits (5th November) */
2008-11-11T10:41:26+00:00,251075573,251052788,1,Ron_Paul...Ron_Paul...,Talk:Fractional-reserve banking,/* Recent edits (5th November) */
2008-11-11T06:52:55+00:00,251052788,251051886,1,Ron_Paul...Ron_Paul...,Talk:Fractional-reserve banking,/* Recent edits (5th November) */
2008-11-11T06:45:37+00:00,251051886,251051447,1,Ron_Paul...Ron_Paul...,Talk:Fractional-reserve banking,/* Recent edits (5th November) */
2008-11-11T06:44:22+00:00,251051744,251051646,1,Ron_Paul...Ron_Paul...,Bank run,/* Theory */  Minor clarification.
2008-11-11T06:43:25+00:00,251051646,250578819,1,Ron_Paul...Ron_Paul...,Bank run,/* References */
2008-11-11T06:41:35+00:00,251051447,251051214,1,Ron_Paul...Ron_Paul...,Talk:Fractional-reserve banking,/* Recent edits (5th November) */
2008-11-11T06:39:51+00:00,251051214,251051125,1,Ron_Paul...Ron_Paul...,Talk:Fractional-reserve banking,/* Recent edits (5th November) */
2008-11-11T06:39:12+00:00,251051125,250438118,1,Ron_Paul...Ron_Paul...,Talk:Fractional-reserve banking,/* Recent edits (5th November) */
2008-11-11T06:28:34+00:00,251049890,250678868,1,Ron_Paul...Ron_Paul...,User talk:Ron Paul...Ron Paul...,/* Credit squeeze/tightening */
2008-11-10T22:28:51+00:00,250971472,250971386,1,Ron_Paul...Ron_Paul...,Talk:Credit tightening,/* Discussion */
2008-11-10T22:28:23+00:00,250971386,250776695,1,Ron_Paul...Ron_Paul...,Talk:Credit tightening,/* Discussion */
2008-11-10T21:25:05+00:00,250958227,250956826,1,Ron_Paul...Ron_Paul...,Austrian school of economics,"Sorry.  I'm trying to avoid the ""harshness"" of the words ""strict enforcement"" (as though it's a Nazi police state idea).  It simply means maximum opennes to voluntary contracting."
2008-11-10T21:18:41+00:00,250956826,250956697,1,Ron_Paul...Ron_Paul...,Austrian school of economics,
2008-11-10T21:18:09+00:00,250956697,250951850,1,Ron_Paul...Ron_Paul...,Austrian school of economics,
2008-11-10T20:56:11+00:00,250951850,250844290,1,Ron_Paul...Ron_Paul...,Austrian school of economics,
2008-11-10T10:22:43+00:00,250844290,250829022,1,Ron_Paul...Ron_Paul...,Austrian school of economics,Punchier
2008-11-10T07:50:56+00:00,250829022,250828933,1,Ron_Paul...Ron_Paul...,Austrian school of economics,
2008-11-10T07:50:01+00:00,250828933,250760494,1,Ron_Paul...Ron_Paul...,Austrian school of economics,
2008-11-10T06:59:18+00:00,250824338,250557175,1,Ron_Paul...Ron_Paul...,Embezzlement,
2008-11-10T04:02:08+00:00,250800407,250800138,1,Ron_Paul...Ron_Paul...,Libertarianism,[[WP:UNDO|Undid]] revision 250800138 by [[Special:Contributions/Ron Paul...Ron Paul...|Ron Paul...Ron Paul...]] ([[User talk:Ron Paul...Ron Paul...|talk]])
2008-11-10T04:00:16+00:00,250800138,250796960,1,Ron_Paul...Ron_Paul...,Libertarianism,
2008-11-10T03:45:46+00:00,250797758,250620972,1,Ron_Paul...Ron_Paul...,Talk:Libertarianism,/* Libertarianism...by committee? How ironic */
2008-11-10T03:41:40+00:00,250796960,250796629,1,Ron_Paul...Ron_Paul...,Libertarianism,
2008-11-10T03:39:58+00:00,250796629,250754778,1,Ron_Paul...Ron_Paul...,Libertarianism,Neater expression.
2008-11-10T01:48:39+00:00,250777062,250777007,1,Ron_Paul...Ron_Paul...,Wikipedia:Requested moves,/* 9 November 2008 */
2008-11-10T01:48:27+00:00,250777007,250776885,1,Ron_Paul...Ron_Paul...,Wikipedia:Requested moves,/* 9 November 2008 */
2008-11-10T01:47:43+00:00,250776885,250758293,1,Ron_Paul...Ron_Paul...,Wikipedia:Requested moves,/* 9 November 2008 */
2008-11-10T01:46:17+00:00,250776643,250776562,1,Ron_Paul...Ron_Paul...,Talk:Neo-Keynesian economics,
2008-11-10T01:45:49+00:00,250776562,250776401,1,Ron_Paul...Ron_Paul...,Talk:Neo-Keynesian economics,/* Requested move */
2008-11-10T01:44:51+00:00,250776401,250776128,1,Ron_Paul...Ron_Paul...,Talk:Neo-Keynesian economics,
2008-11-10T01:43:25+00:00,250776128,249956923,1,Ron_Paul...Ron_Paul...,Talk:Neo-Keynesian economics,
2008-11-10T00:50:12+00:00,250766207,250656780,1,Ron_Paul...Ron_Paul...,Counterfeit,/* Effect on society */
2008-11-10T00:42:47+00:00,250764957,250761310,1,Ron_Paul...Ron_Paul...,Austrian business cycle theory,/* Assertions */
2008-11-10T00:22:42+00:00,250761310,250625712,1,Ron_Paul...Ron_Paul...,Austrian business cycle theory,/* Assertions */  Dumb banks would always make fatal errors.  Only astute cautious ones would survive in a truly free market.
2008-11-10T00:18:02+00:00,250760494,250760315,1,Ron_Paul...Ron_Paul...,Austrian school of economics,/* Contributions */
2008-11-10T00:17:05+00:00,250760315,250760273,1,Ron_Paul...Ron_Paul...,Austrian school of economics,/* Contributions */
2008-11-10T00:16:51+00:00,250760273,250759420,1,Ron_Paul...Ron_Paul...,Austrian school of economics,/* Contributions */
2008-11-10T00:12:06+00:00,250759420,250556558,1,Ron_Paul...Ron_Paul...,Austrian school of economics,
2008-11-10T00:05:43+00:00,250758293,250752990,1,Ron_Paul...Ron_Paul...,Wikipedia:Requested moves,/* Other proposals */
2008-11-10T00:03:43+00:00,250757895,250757530,1,Ron_Paul...Ron_Paul...,Talk:Credit tightening,
2008-11-10T00:02:04+00:00,250757530,250607823,1,Ron_Paul...Ron_Paul...,Talk:Credit tightening,
2008-11-09T23:48:19+00:00,250754778,250629283,1,Ron_Paul...Ron_Paul...,Libertarianism,
2008-11-09T10:50:55+00:00,250629283,250629149,1,Ron_Paul...Ron_Paul...,Libertarianism,
2008-11-09T10:49:55+00:00,250629149,250622263,1,Ron_Paul...Ron_Paul...,Libertarianism,Non-consensual actions should be emphasized.  Tax could be voluntary for example.  But it's not.  There is a reason why...
2008-11-09T10:21:16+00:00,250625712,250544936,1,Ron_Paul...Ron_Paul...,Austrian business cycle theory,/* Assertions */
2008-11-09T09:40:27+00:00,250620972,250620453,1,Ron_Paul...Ron_Paul...,Talk:Libertarianism,/* Libertarianism...by committee? How ironic */
2008-11-09T09:35:59+00:00,250620453,250618751,1,Ron_Paul...Ron_Paul...,Talk:Libertarianism,
2008-11-09T09:27:30+00:00,250619432,250619355,1,Ron_Paul...Ron_Paul...,Libertarianism,
2008-11-09T09:26:45+00:00,250619355,250619246,1,Ron_Paul...Ron_Paul...,Libertarianism,
2008-11-09T09:25:46+00:00,250619246,250619154,1,Ron_Paul...Ron_Paul...,Libertarianism,
2008-11-09T09:24:51+00:00,250619154,250615444,1,Ron_Paul...Ron_Paul...,Libertarianism,"Spectrum unnecessary and misleading.  The reference talks about spectrum between schools, not within.  Pointless to use the term.  And not punchy enough."
2008-11-09T09:21:28+00:00,250618751,244150293,1,Ron_Paul...Ron_Paul...,Talk:Libertarianism,"/* First Use of the word ""libertarian""= */"
2008-11-09T08:55:33+00:00,250615444,250613613,1,Ron_Paul...Ron_Paul...,Libertarianism,
2008-11-09T08:42:28+00:00,250613613,250613505,1,Ron_Paul...Ron_Paul...,Libertarianism,
2008-11-09T08:41:35+00:00,250613505,250613055,1,Ron_Paul...Ron_Paul...,Libertarianism,"""Broad spectrum"" is a gross overstatement.  It's actually a fairly narrow movement, compared to, say, socialism or statism."
2008-11-09T08:37:57+00:00,250613055,250612758,1,Ron_Paul...Ron_Paul...,Libertarianism,"Unreferenced, and a somewhat useless comment.  How did that sentence help a newbie understand the broad parameters of Libertarianism?  Every movement (especially Marxism) is vague around the edges."
2008-11-09T08:35:36+00:00,250612758,250609913,1,Ron_Paul...Ron_Paul...,Libertarianism,
2008-11-09T08:11:44+00:00,250609913,250609605,1,Ron_Paul...Ron_Paul...,Libertarianism,
2008-11-09T08:08:14+00:00,250609605,250609412,1,Ron_Paul...Ron_Paul...,Libertarianism,
2008-11-09T08:05:51+00:00,250609412,250609267,1,Ron_Paul...Ron_Paul...,Libertarianism,
2008-11-09T08:03:56+00:00,250609267,250609080,1,Ron_Paul...Ron_Paul...,Libertarianism,Beautiful analysis of Libertarian morality and the State.
2008-11-09T08:02:01+00:00,250609080,250601458,1,Ron_Paul...Ron_Paul...,Libertarianism,"Personal opinion?  No.  Straight out of LewRockwell.com.  I'll reference it all now.  First, a reference to utilitarian (efficient achievement) arguments for Libertariansim mentioned here.  More..."
2008-11-09T07:53:05+00:00,250608305,250608223,1,Ron_Paul...Ron_Paul...,Talk:Credit crunch,/* Crunch versus sqeeze again. Time to merge yet? */
2008-11-09T07:52:11+00:00,250608223,250583882,1,Ron_Paul...Ron_Paul...,Talk:Credit crunch,/* Crunch versus sqeeze again. Time to merge yet? */
2008-11-09T07:48:02+00:00,250607823,250603424,1,Ron_Paul...Ron_Paul...,Talk:Credit tightening,
2008-11-09T07:15:32+00:00,250604734,250604692,1,Ron_Paul...Ron_Paul...,Credit tightening,
2008-11-09T07:15:01+00:00,250604692,250603791,1,Ron_Paul...Ron_Paul...,Credit tightening,This will do for now.  I'll clean it up when the administrators have sorted out the redirects.  Sorry.
2008-11-09T07:12:31+00:00,250604443,250604394,1,Ron_Paul...Ron_Paul...,Wikipedia:Requested moves,/* 9 November 2008 */
2008-11-09T07:12:03+00:00,250604394,250598224,1,Ron_Paul...Ron_Paul...,Wikipedia:Requested moves,/* Other proposals */
2008-11-09T07:05:39+00:00,250603791,250603422,1,Ron_Paul...Ron_Paul...,Credit tightening,
2008-11-09T07:04:49+00:00,250603719,248862911,1,Ron_Paul...Ron_Paul...,User talk:NJGW/5,/* Request */
2008-11-09T07:01:30+00:00,250603425,0,1,Ron_Paul...Ron_Paul...,Talk:Credit squeeze,moved [[Talk:Credit squeeze]] to [[Talk:Credit contraction]]:&#32;Please see credit crunch talk page
2008-11-09T07:01:30+00:00,250603424,250398642,1,Ron_Paul...Ron_Paul...,Talk:Credit tightening,moved [[Talk:Credit squeeze]] to [[Talk:Credit contraction]]:&#32;Please see credit crunch talk page
2008-11-09T07:01:30+00:00,250603423,0,1,Ron_Paul...Ron_Paul...,Credit squeeze,moved [[Credit squeeze]] to [[Credit contraction]]:&#32;Please see credit crunch talk page
2008-11-09T07:01:30+00:00,250603422,250600275,1,Ron_Paul...Ron_Paul...,Credit tightening,moved [[Credit squeeze]] to [[Credit contraction]]:&#32;Please see credit crunch talk page
2008-11-09T06:38:11+00:00,250600966,250600272,1,Ron_Paul...Ron_Paul...,Libertarianism,
2008-11-09T06:32:21+00:00,250600272,250600194,1,Ron_Paul...Ron_Paul...,Libertarianism,
2008-11-09T06:31:45+00:00,250600194,250600097,1,Ron_Paul...Ron_Paul...,Libertarianism,
2008-11-09T06:30:56+00:00,250600097,250253418,1,Ron_Paul...Ron_Paul...,Libertarianism,Prioritize is an ugly term.  It could be 15th and still prioritized.  I've tried to tidy it up.
2008-11-09T06:26:41+00:00,250599486,250556206,1,Ron_Paul...Ron_Paul...,Paul Krugman,"Sorry, I don't understand either edit.  (1) Anderson is the critic cited.  Not Klein.  Others are not necessarily Libertarian. (2) It's appropriately placed in the critique section. Please explain."
2008-11-09T06:00:25+00:00,250596156,250579112,1,Ron_Paul...Ron_Paul...,Talk:Bank run,/* Match the maturities of deposits and loans */
2008-11-09T05:50:57+00:00,250594820,250397787,1,Ron_Paul...Ron_Paul...,Credit crunch,
2008-11-09T03:00:02+00:00,250565571,248322127,1,Ron_Paul...Ron_Paul...,Economics of fascism,/* Pre-war economy: 1933-1939 */ typo
2008-11-09T02:46:21+00:00,250563039,250452410,1,Ron_Paul...Ron_Paul...,Bank run,"OK, but the others do.  No need to wipe them all out just because one is marginal.  Rothbard and Hulsmann are directly on point.  No need to leave the sentence naked."
2008-11-09T02:37:39+00:00,250561371,250558387,1,Ron_Paul...Ron_Paul...,Criticism of fractional-reserve banking,
2008-11-08T11:42:06+00:00,250419890,250419699,1,Ron_Paul...Ron_Paul...,Bank run,/* Individual banks */  Hopefully this one fills out the context on fullrb
2008-11-08T11:40:34+00:00,250419699,250410579,1,Ron_Paul...Ron_Paul...,Bank run,/* Individual banks */  Refs added as requested.
2008-11-08T08:00:14+00:00,250400677,250342993,1,Ron_Paul...Ron_Paul...,Bank run,/* Individual banks */  This tiny little section didn't work.  It was a weird hybrid of ideas.  I've tried to clean it up.
2008-11-08T07:42:46+00:00,250399465,250217934,1,Ron_Paul...Ron_Paul...,Austrian business cycle theory,
2008-11-08T07:38:43+00:00,250399160,250399049,1,Ron_Paul...Ron_Paul...,User talk:Ron Paul...Ron Paul...,/* Credit squeeze/tightening */
2008-11-08T07:37:42+00:00,250399074,250212975,1,Ron_Paul...Ron_Paul...,Embezzlement,"/* Safeguards against embezzlement */  ""Full amount"" is singular.  Sorry for the grammatical mistake."
2008-11-08T07:32:12+00:00,250398642,244721369,1,Ron_Paul...Ron_Paul...,Talk:Credit tightening,
2008-11-08T07:28:08+00:00,250398328,250398281,1,Ron_Paul...Ron_Paul...,User talk:Ron Paul...Ron Paul...,"/* Credit squeeze/tightening */ Economy in words, why can't I remember."
2008-11-08T07:27:31+00:00,250398281,250398196,1,Ron_Paul...Ron_Paul...,User talk:Ron Paul...Ron Paul...,/* Credit squeeze/tightening */  Whoops
2008-11-08T07:26:32+00:00,250398196,250397979,1,Ron_Paul...Ron_Paul...,User talk:Ron Paul...Ron Paul...,/* Credit squeeze/tightening */
2008-11-08T07:22:01+00:00,250397850,250397628,1,Ron_Paul...Ron_Paul...,Credit tightening,
2008-11-08T07:21:27+00:00,250397787,250396629,1,Ron_Paul...Ron_Paul...,Credit crunch,
2008-11-08T07:19:47+00:00,250397628,250397529,1,Ron_Paul...Ron_Paul...,Credit tightening,Simpler.  Elegant.
2008-11-08T07:18:22+00:00,250397529,250397219,1,Ron_Paul...Ron_Paul...,Credit tightening,
2008-11-08T07:17:45+00:00,250397469,250397177,1,Ron_Paul...Ron_Paul...,User talk:Ron Paul...Ron Paul...,
2008-11-08T07:14:08+00:00,250397151,250397082,1,Ron_Paul...Ron_Paul...,Credit tightening,
2008-11-08T07:13:17+00:00,250397082,250397037,1,Ron_Paul...Ron_Paul...,Credit tightening,
2008-11-08T07:12:41+00:00,250397037,250396689,1,Ron_Paul...Ron_Paul...,Credit tightening,
2008-11-08T07:08:44+00:00,250396689,244521860,1,Ron_Paul...Ron_Paul...,Credit tightening,
2008-11-08T07:07:52+00:00,250396629,250221596,1,Ron_Paul...Ron_Paul...,Credit crunch,
2008-11-08T07:05:55+00:00,250396452,250252306,1,Ron_Paul...Ron_Paul...,Talk:Credit crunch,/* Crunch versus sqeeze again. Time to merge yet? */
2008-11-07T12:57:42+00:00,250225347,250225127,1,Ron_Paul...Ron_Paul...,Talk:Bank run,/* Rothbard etc. */
2008-11-07T12:56:10+00:00,250225127,250194187,1,Ron_Paul...Ron_Paul...,Talk:Bank run,/* Rothbard etc. */
2008-11-07T12:40:22+00:00,250222944,247145711,1,Ron_Paul...Ron_Paul...,Debt bondage,
2008-11-07T12:29:48+00:00,250221596,250221480,1,Ron_Paul...Ron_Paul...,Credit crunch,
2008-11-07T12:28:55+00:00,250221480,250221381,1,Ron_Paul...Ron_Paul...,Credit crunch,
2008-11-07T12:28:12+00:00,250221381,250221171,1,Ron_Paul...Ron_Paul...,Credit crunch,
2008-11-07T12:26:29+00:00,250221171,250125774,1,Ron_Paul...Ron_Paul...,Credit crunch,
2008-11-07T12:24:30+00:00,250220881,250220757,1,Ron_Paul...Ron_Paul...,Talk:Credit crunch,/* Crunch versus sqeeze again. Time to merge yet? */
2008-11-07T12:23:35+00:00,250220757,250125619,1,Ron_Paul...Ron_Paul...,Talk:Credit crunch,/* Crunch versus sqeeze again. Time to merge yet? */
2008-11-07T12:01:16+00:00,250217934,250128281,1,Ron_Paul...Ron_Paul...,Austrian business cycle theory,/* Assertions */
2008-11-07T11:40:00+00:00,250215289,250215262,1,Ron_Paul...Ron_Paul...,User talk:Ron Paul...Ron Paul...,[[WP:UNDO|Undid]] revision 250215262 by [[Special:Contributions/Ron Paul...Ron Paul...|Ron Paul...Ron Paul...]] ([[User talk:Ron Paul...Ron Paul...|talk]])
2008-11-07T11:39:44+00:00,250215262,245873009,1,Ron_Paul...Ron_Paul...,User talk:Ron Paul...Ron Paul...,
2008-11-07T11:22:36+00:00,250212975,250212877,1,Ron_Paul...Ron_Paul...,Embezzlement,
2008-11-07T11:21:50+00:00,250212877,250212451,1,Ron_Paul...Ron_Paul...,Embezzlement,/* Safeguards against embezzlement */
2008-11-07T11:18:38+00:00,250212451,250140679,1,Ron_Paul...Ron_Paul...,Embezzlement,
2008-11-07T06:28:22+00:00,250186749,250142404,1,Ron_Paul...Ron_Paul...,Bank run,/* Individual banks */
2008-11-07T05:42:54+00:00,250182411,250181754,1,Ron_Paul...Ron_Paul...,Talk:Bank run,
2008-11-07T05:36:21+00:00,250181754,250142656,1,Ron_Paul...Ron_Paul...,Talk:Bank run,/* Rothbard etc. */
2008-11-07T00:39:55+00:00,250140679,250140528,1,Ron_Paul...Ron_Paul...,Embezzlement,
2008-11-07T00:38:59+00:00,250140528,249084523,1,Ron_Paul...Ron_Paul...,Embezzlement,
2008-11-06T23:56:10+00:00,250132625,250132324,1,Ron_Paul...Ron_Paul...,Bank run,/* Prevention */
2008-11-06T23:54:28+00:00,250132324,250130060,1,Ron_Paul...Ron_Paul...,Bank run,"/* Prevention */  Added references clearly referring to the ""solution"" for bank runs"
2008-11-06T23:41:15+00:00,250130060,249992068,1,Ron_Paul...Ron_Paul...,Bank run,[[WP:UNDO|Undid]] revision 249992068 by [[Special:Contributions/Eubulides|Eubulides]] ([[User talk:Eubulides|talk]])
2008-11-06T23:31:36+00:00,250128281,250128193,1,Ron_Paul...Ron_Paul...,Austrian business cycle theory,/* Assertions */
2008-11-06T23:31:09+00:00,250128193,250128099,1,Ron_Paul...Ron_Paul...,Austrian business cycle theory,/* Assertions */
2008-11-06T23:30:32+00:00,250128099,250127488,1,Ron_Paul...Ron_Paul...,Austrian business cycle theory,/* Assertions */
2008-11-06T23:27:06+00:00,250127488,250127367,1,Ron_Paul...Ron_Paul...,Austrian business cycle theory,/* Assertions */
2008-11-06T22:49:25+00:00,250120827,249892669,1,Ron_Paul...Ron_Paul...,Talk:Credit crunch,/* Crunch versus sqeeze again. Time to merge yet? */
2008-11-06T06:08:12+00:00,249987981,249856373,1,Ron_Paul...Ron_Paul...,Austrian school of economics,/* Criticism */
2008-11-06T04:21:59+00:00,249976366,249838330,1,Ron_Paul...Ron_Paul...,2007–2008 financial crisis,
2008-11-06T04:15:51+00:00,249975718,249975008,1,Ron_Paul...Ron_Paul...,Bank run,/* Prevention */
2008-11-06T04:09:38+00:00,249975008,249974921,1,Ron_Paul...Ron_Paul...,Bank run,/* Examples of systemic banking crises */
2008-11-06T04:08:52+00:00,249974921,249974803,1,Ron_Paul...Ron_Paul...,Bank run,/* Examples of systemic banking crises */
2008-11-06T04:07:53+00:00,249974803,249974535,1,Ron_Paul...Ron_Paul...,Bank run,/* Examples of systemic banking crises */
2008-11-06T04:05:44+00:00,249974535,249973255,1,Ron_Paul...Ron_Paul...,Bank run,/* Examples of systemic banking crises */
2008-11-06T03:55:00+00:00,249973255,249973139,1,Ron_Paul...Ron_Paul...,Bank run,/* Examples of systemic banking crises */
2008-11-06T03:54:08+00:00,249973139,249973028,1,Ron_Paul...Ron_Paul...,Bank run,/* Examples of systemic banking crises */
2008-11-06T03:53:07+00:00,249973028,249972789,1,Ron_Paul...Ron_Paul...,Bank run,/* Examples of systemic banking crises */
2008-11-06T03:51:18+00:00,249972789,249972635,1,Ron_Paul...Ron_Paul...,Bank run,/* Examples of systemic banking crises */
2008-11-06T03:50:23+00:00,249972635,249816596,1,Ron_Paul...Ron_Paul...,Bank run,/* Examples of systemic banking crises */
2008-11-06T01:50:46+00:00,249956806,230292342,1,Ron_Paul...Ron_Paul...,Talk:Neo-Keynesian economics,"/* Yeah, what the hell IS it??? */"
2008-11-06T01:49:23+00:00,249956664,246669960,1,Ron_Paul...Ron_Paul...,Neo-Keynesian economics,
2008-11-04T06:53:24+00:00,249597245,249296959,1,Ron_Paul...Ron_Paul...,Austrian business cycle theory,/* Assertions */
2008-11-04T06:50:24+00:00,249596945,249032687,1,Ron_Paul...Ron_Paul...,Talk:Austrian business cycle theory,/* Please someone correct the grammer */  How embarrassing!  Check for grammar - and spelling!!!  Red faced loser will shut up now.
2008-11-04T01:59:36+00:00,249551047,249550431,1,Ron_Paul...Ron_Paul...,Austrian school of economics,/* Inflation */
2008-11-04T01:56:36+00:00,249550431,249509628,1,Ron_Paul...Ron_Paul...,Austrian school of economics,/* Inflation */
2008-11-03T22:43:23+00:00,249509628,249406470,1,Ron_Paul...Ron_Paul...,Austrian school of economics,/* Economic calculation */  grammer
2008-11-03T22:30:12+00:00,249506754,249445517,1,Ron_Paul...Ron_Paul...,Paul Krugman,"Your amendment didn't work: (1) Forbes is NOT ""Libertarian"" (2) LewRockwell does have many many articles on this issue.  I've added just a couple to prove the point."
2008-11-03T10:50:38+00:00,249378049,249359288,1,Ron_Paul...Ron_Paul...,Talk:Fractional-reserve banking,/* The source of the confusion? */
2008-11-03T07:46:04+00:00,249359288,249359245,1,Ron_Paul...Ron_Paul...,Talk:Fractional-reserve banking,[[WP:UNDO|Undid]] revision 249359245 by [[Special:Contributions/Ron Paul...Ron Paul...|Ron Paul...Ron Paul...]] ([[User talk:Ron Paul...Ron Paul...|talk]])
2008-11-03T07:45:30+00:00,249359245,249354984,1,Ron_Paul...Ron_Paul...,Talk:Fractional-reserve banking,/* The source of the confusion? */
2008-11-03T07:02:06+00:00,249354984,249354921,1,Ron_Paul...Ron_Paul...,Talk:Fractional-reserve banking,/* The source of the confusion? */
2008-11-03T07:01:24+00:00,249354921,249354065,1,Ron_Paul...Ron_Paul...,Talk:Fractional-reserve banking,/* The source of the confusion? */
2008-11-03T06:53:21+00:00,249354065,249353641,1,Ron_Paul...Ron_Paul...,Talk:Fractional-reserve banking,/* The source of the confusion? */
2008-11-03T04:25:39+00:00,249336899,249331398,1,Ron_Paul...Ron_Paul...,Talk:Fractional-reserve banking,/* The source of the confusion? */
2008-11-03T03:51:53+00:00,249331398,249330619,1,Ron_Paul...Ron_Paul...,Talk:Fractional-reserve banking,/* The source of the confusion? */
2008-11-03T03:47:50+00:00,249330619,249330518,1,Ron_Paul...Ron_Paul...,Talk:Fractional-reserve banking,/* The source of the confusion? */  I'll use the American grammer
2008-11-03T03:47:14+00:00,249330518,249328307,1,Ron_Paul...Ron_Paul...,Talk:Fractional-reserve banking,/* The source of the confusion? */
2008-11-03T03:35:01+00:00,249328307,249326339,1,Ron_Paul...Ron_Paul...,Talk:Fractional-reserve banking,/* The source of the confusion? */
2008-11-03T03:22:47+00:00,249326339,249257220,1,Ron_Paul...Ron_Paul...,Talk:Fractional-reserve banking,/* The source of the confusion? */
2008-11-03T03:03:07+00:00,249322835,249080267,1,Ron_Paul...Ron_Paul...,Full-reserve banking,/* Criticism of full-reserve banking advocates */
2008-11-03T03:00:21+00:00,249322365,249321947,1,Ron_Paul...Ron_Paul...,Fractional-reserve banking,"It doesn't really need the word ""legally"".  FRB can happen whether the law allows it or not.  If the law doesn't allow it, it's obviously embezzlement, but FRB can still happen.  Just like theft."
2008-11-03T00:40:22+00:00,249298773,249298289,1,Ron_Paul...Ron_Paul...,Paul Krugman,/* Criticism */  Perhaps you would be happy with this?
2008-11-03T00:37:37+00:00,249298289,249140823,1,Ron_Paul...Ron_Paul...,Paul Krugman,Yes they are.  Anderson makes these comments  - please also check out numerous critique articles from LR.com
2008-11-02T05:22:27+00:00,249138439,249137979,1,Ron_Paul...Ron_Paul...,Paul Krugman,/* Enron */
2008-11-02T05:18:31+00:00,249137979,249137925,1,Ron_Paul...Ron_Paul...,Paul Krugman,/* Criticism */
2008-11-02T05:18:02+00:00,249137925,249137444,1,Ron_Paul...Ron_Paul...,Paul Krugman,/* Criticism */
2008-11-02T05:13:51+00:00,249137444,249137295,1,Ron_Paul...Ron_Paul...,Paul Krugman,/* Criticism */
2008-11-02T05:12:41+00:00,249137295,248122365,1,Ron_Paul...Ron_Paul...,Paul Krugman,/* Criticism */
2008-11-02T04:57:12+00:00,249135341,249100504,1,Ron_Paul...Ron_Paul...,Austrian business cycle theory,/* Assertions */
2008-11-02T04:48:59+00:00,249134399,249092950,1,Ron_Paul...Ron_Paul...,Austrian school of economics,
2008-11-02T01:03:27+00:00,249100504,249083356,1,Ron_Paul...Ron_Paul...,Austrian business cycle theory,/* Similar theories */
2008-11-01T23:23:45+00:00,249084523,248211679,1,Ron_Paul...Ron_Paul...,Embezzlement,More pertinent examples provided.  Civil servant example is ambiguous - it's rare that they are given authority for physical possession of money.
2008-11-01T23:16:06+00:00,249083356,249026174,1,Ron_Paul...Ron_Paul...,Austrian business cycle theory,"Too much confusion between z and s.  Went with ""s""."
2008-11-01T22:56:47+00:00,249080267,249079580,1,Ron_Paul...Ron_Paul...,Full-reserve banking,/* The case for full-reserve banking */
2008-11-01T22:52:28+00:00,249079580,249078537,1,Ron_Paul...Ron_Paul...,Full-reserve banking,/* The case for full-reserve banking */
2008-11-01T10:55:40+00:00,248976003,248975894,1,Ron_Paul...Ron_Paul...,Austrian business cycle theory,
2008-11-01T10:54:36+00:00,248975894,248975776,1,Ron_Paul...Ron_Paul...,Austrian business cycle theory,/* Assertions */
2008-11-01T10:53:30+00:00,248975776,248941931,1,Ron_Paul...Ron_Paul...,Austrian business cycle theory,/* Assertions */
2008-11-01T10:47:14+00:00,248975231,248975094,1,Ron_Paul...Ron_Paul...,Austrian school of economics,/* Economic calculation */
2008-11-01T10:45:39+00:00,248975094,248974794,1,Ron_Paul...Ron_Paul...,Austrian school of economics,/* Economic calculation */
2008-11-01T10:42:26+00:00,248974794,248974308,1,Ron_Paul...Ron_Paul...,Austrian school of economics,Probably tried to fit too much in here.  Just note: Public goods are a completely different issue and government has a role to play here.  Don't know where to put analysis of public goods...
2008-11-01T10:36:47+00:00,248974308,248972992,1,Ron_Paul...Ron_Paul...,Austrian school of economics,/* Inflation */
2008-11-01T10:35:27+00:00,248974190,248974011,1,Ron_Paul...Ron_Paul...,Inflation,/* Austrian theory */ Link didn't work.  Fixed now.
2008-11-01T10:33:21+00:00,248974011,248878364,1,Ron_Paul...Ron_Paul...,Inflation,/* Austrian theory */
2008-11-01T10:30:51+00:00,248973791,248973407,1,Ron_Paul...Ron_Paul...,Monetary inflation,
2008-11-01T10:26:13+00:00,248973407,248963883,1,Ron_Paul...Ron_Paul...,Monetary inflation,
2008-11-01T10:21:35+00:00,248972992,248920638,1,Ron_Paul...Ron_Paul...,Austrian school of economics,
2008-11-01T08:22:56+00:00,248964332,240159401,1,Ron_Paul...Ron_Paul...,Talk:Monetary inflation,/* Definition  comprehension */
2008-11-01T08:16:26+00:00,248963883,248963659,1,Ron_Paul...Ron_Paul...,Monetary inflation,"No reason given why previous details were deleted.  Bizarre deletions, as newbies are given very little substance.  It's not a very long article as it is."
2008-11-01T08:13:19+00:00,248963659,243703206,1,Ron_Paul...Ron_Paul...,Monetary inflation,"First para was factually wrong.  Austrians do NOT make the distinction.  Others do, trying to quarantine the arguments (and possibly obfuscate the causes).  Austrians maintain P = delta M"
2008-11-01T05:34:02+00:00,248951807,248951761,1,Ron_Paul...Ron_Paul...,Criticism of fractional-reserve banking,
2008-11-01T05:33:16+00:00,248951761,248782069,1,Ron_Paul...Ron_Paul...,Criticism of fractional-reserve banking,
2008-11-01T04:56:02+00:00,248948384,248944901,1,Ron_Paul...Ron_Paul...,Fractional-reserve banking,Repairing further damage from gnomic troll.  Someone else needs to block this recidivist.
2008-11-01T04:23:00+00:00,248944901,248944586,1,Ron_Paul...Ron_Paul...,Fractional-reserve banking,/* Criticism */
2008-11-01T04:20:10+00:00,248944586,248944513,1,Ron_Paul...Ron_Paul...,Fractional-reserve banking,/* Exacerbation of the business cycle */
2008-11-01T04:19:33+00:00,248944513,248943865,1,Ron_Paul...Ron_Paul...,Fractional-reserve banking,/* Exacerbation of the business cycle */
2008-11-01T04:13:53+00:00,248943865,248923861,1,Ron_Paul...Ron_Paul...,Fractional-reserve banking,Congenital recidivist.  77.44.41.32's edits need to be checked by someone else.  I'm over the gnomic troll.
2008-11-01T03:56:13+00:00,248941931,248921785,1,Ron_Paul...Ron_Paul...,Austrian business cycle theory,/* Assertions */
2008-10-31T21:01:37+00:00,248886605,248833545,1,Ron_Paul...Ron_Paul...,Austrian business cycle theory,"/* Assertions */ z rather than s.  I don't know what the policy is here, but at least this is consistent with the spelling on the rest of the page"
2008-10-31T11:11:30+00:00,248795529,248795334,1,Ron_Paul...Ron_Paul...,Austrian business cycle theory,/* Assertions */
2008-10-31T11:09:19+00:00,248795334,248795118,1,Ron_Paul...Ron_Paul...,Austrian business cycle theory,/* Assertions */
2008-10-31T11:07:07+00:00,248795118,248794172,1,Ron_Paul...Ron_Paul...,Austrian business cycle theory,/* Assertions */
2008-10-31T11:04:25+00:00,248794798,248794651,1,Ron_Paul...Ron_Paul...,Talk:Austrian business cycle theory,/* The Inherent Importance of the Hetereogeneity of Capital */
2008-10-31T11:03:00+00:00,248794651,248555388,1,Ron_Paul...Ron_Paul...,Talk:Austrian business cycle theory,"/* Sraffa, Kaldor & Hayek */"
2008-10-31T10:58:07+00:00,248794172,248793684,1,Ron_Paul...Ron_Paul...,Austrian business cycle theory,This is hard work...I hope I'm making it clearer...
2008-10-31T10:53:21+00:00,248793684,248793481,1,Ron_Paul...Ron_Paul...,Austrian business cycle theory,/* Assertions */
2008-10-31T10:51:14+00:00,248793481,248793294,1,Ron_Paul...Ron_Paul...,Austrian business cycle theory,"/* Assertions */ I'm trying to tease out why the bust occurs due to the heterogeneity of the capital, but in simple terms.  It's a key part of the theory, but so difficult to explain simply"
2008-10-31T10:49:07+00:00,248793294,248793219,1,Ron_Paul...Ron_Paul...,Austrian business cycle theory,/* Assertions */
2008-10-31T10:48:28+00:00,248793219,248589992,1,Ron_Paul...Ron_Paul...,Austrian business cycle theory,/* Assertions */
2008-10-31T08:40:34+00:00,248782069,248771857,1,Ron_Paul...Ron_Paul...,Criticism of fractional-reserve banking,
2008-10-31T06:37:01+00:00,248771857,248771766,1,Ron_Paul...Ron_Paul...,Criticism of fractional-reserve banking,
2008-10-31T06:36:04+00:00,248771766,248771676,1,Ron_Paul...Ron_Paul...,Criticism of fractional-reserve banking,
2008-10-31T06:35:13+00:00,248771676,248771533,1,Ron_Paul...Ron_Paul...,Criticism of fractional-reserve banking,
2008-10-31T06:33:40+00:00,248771533,248770717,1,Ron_Paul...Ron_Paul...,Criticism of fractional-reserve banking,
2008-10-31T06:25:11+00:00,248770717,248770602,1,Ron_Paul...Ron_Paul...,Criticism of fractional-reserve banking,
2008-10-31T06:23:50+00:00,248770602,248770541,1,Ron_Paul...Ron_Paul...,Criticism of fractional-reserve banking,
2008-10-31T06:23:09+00:00,248770541,247748154,1,Ron_Paul...Ron_Paul...,Criticism of fractional-reserve banking,
2008-10-31T03:07:44+00:00,248750422,247990287,1,Ron_Paul...Ron_Paul...,Currency,/* Legal tender era */
2008-10-31T01:59:30+00:00,248741063,248740499,1,Ron_Paul...Ron_Paul...,Free trade,[[WP:UNDO|Undid]] revision 248740499 by [[Special:Contributions/61.7.158.110|61.7.158.110]] ([[User talk:61.7.158.110|talk]])
2008-10-31T01:58:18+00:00,248740893,247520434,1,Ron_Paul...Ron_Paul...,William Paterson (banker),/* External links */  Deleted link that didn't work
2008-10-30T10:43:56+00:00,248589992,248589937,1,Ron_Paul...Ron_Paul...,Austrian business cycle theory,/* Critiques */
2008-10-30T10:43:23+00:00,248589937,248589250,1,Ron_Paul...Ron_Paul...,Austrian business cycle theory,"Website not a ""reliable"" source for the assertion.  Find the actual (full) retraction penned by Hayek himself before making the assertion."
2008-10-30T10:35:46+00:00,248589250,248589089,1,Ron_Paul...Ron_Paul...,Austrian business cycle theory,"He never fully ""retracted"" it.  Come on, let's be reasonable."
2008-10-30T10:34:02+00:00,248589089,248588960,1,Ron_Paul...Ron_Paul...,Austrian business cycle theory,
2008-10-30T10:32:45+00:00,248588960,248531204,1,Ron_Paul...Ron_Paul...,Austrian business cycle theory,
2008-10-30T04:35:10+00:00,248557018,247874589,1,Ron_Paul...Ron_Paul...,Talk:Fractional-reserve banking,/* Headline text */  Removed typo
2008-10-30T04:21:37+00:00,248555388,248554892,1,Ron_Paul...Ron_Paul...,Talk:Austrian business cycle theory,/* Please someone correct the grammer */  Sorry it was BenBest who made the change to the citation.  Thanks - the page reference is much better.  You've actually read Human Action. Incredible!
2008-10-30T04:16:56+00:00,248554892,248508185,1,Ron_Paul...Ron_Paul...,Talk:Austrian business cycle theory,/* Great Depression */  Vision Thing - you're right about the better page references for the von Mises assertion.  Thanks.
2008-10-29T23:23:50+00:00,248508185,248507245,1,Ron_Paul...Ron_Paul...,Talk:Austrian business cycle theory,/* Great Depression */
2008-10-29T23:19:16+00:00,248507245,248497350,1,Ron_Paul...Ron_Paul...,Talk:Austrian business cycle theory,/* Great Depression */
2008-10-29T11:01:28+00:00,248382498,248378432,1,Ron_Paul...Ron_Paul...,Austrian school of economics,"Can we at least keep the wording neutral and genuinely NPOV?  By the way, neo-Keynesian economics needs a knowledgeable contributor to flesh out the content..."
2008-10-29T10:40:27+00:00,248380362,247994415,1,Ron_Paul...Ron_Paul...,Anal sex,"/* Christianity */  Please provide an example of any major Christian religion which openly finds anal sex to be ""acceptable"".  I'm not saying it doesn't occur, but surely ""most"" is more accurate."
2008-10-29T07:58:50+00:00,248365882,248365701,1,Ron_Paul...Ron_Paul...,Austrian school of economics,"Mises Institute is ""non-academic""? You have got to be kidding.  It's a place of higher learning, that's for sure."
2008-10-29T07:56:24+00:00,248365701,248365370,1,Ron_Paul...Ron_Paul...,Austrian school of economics,
2008-10-29T07:52:02+00:00,248365370,248365148,1,Ron_Paul...Ron_Paul...,Austrian school of economics,/* History */  Typo (unbold)
2008-10-29T07:49:02+00:00,248365148,248302518,1,Ron_Paul...Ron_Paul...,Austrian school of economics,Please see talk page.  I've given it a go.  I hope it's more accessible to the non-praxeologists who don't now about methodologial individualism or the heterogeneity of capital
2008-10-29T07:43:35+00:00,248364723,248364661,1,Ron_Paul...Ron_Paul...,Talk:Austrian school of economics,/* Opening paragraph is too complex */
2008-10-29T07:42:40+00:00,248364661,248364594,1,Ron_Paul...Ron_Paul...,Talk:Austrian school of economics,/* Opening paragraph is too complex */
2008-10-29T07:41:40+00:00,248364594,248364524,1,Ron_Paul...Ron_Paul...,Talk:Austrian school of economics,/* Opening paragraph is too complex */
2008-10-29T07:40:42+00:00,248364524,248364490,1,Ron_Paul...Ron_Paul...,Talk:Austrian school of economics,/* Opening paragraph is too complex */
2008-10-29T07:40:16+00:00,248364490,248364298,1,Ron_Paul...Ron_Paul...,Talk:Austrian school of economics,/* Opening paragraph is too complex */
2008-10-29T07:37:32+00:00,248364298,248364199,1,Ron_Paul...Ron_Paul...,Talk:Austrian school of economics,/* Opening paragraph is too complex */
2008-10-29T07:36:08+00:00,248364199,248364136,1,Ron_Paul...Ron_Paul...,Talk:Austrian school of economics,/* Opening paragraph is too complex */
2008-10-29T07:35:14+00:00,248364136,246681530,1,Ron_Paul...Ron_Paul...,Talk:Austrian school of economics,/* Opening paragraph is too complex */
2008-10-28T06:18:19+00:00,248144516,248086888,1,Ron_Paul...Ron_Paul...,Talk:Austrian business cycle theory,/* Origin of central banks and recessions */
2008-10-28T03:59:05+00:00,248129596,248129445,1,Ron_Paul...Ron_Paul...,Austrian school of economics,/* Criticism */
2008-10-28T03:58:06+00:00,248129445,248128206,1,Ron_Paul...Ron_Paul...,Austrian school of economics,/* Criticism */
2008-10-28T03:47:49+00:00,248128206,248127779,1,Ron_Paul...Ron_Paul...,Austrian school of economics,/* Economic calculation problem */
2008-10-28T03:44:21+00:00,248127779,248127164,1,Ron_Paul...Ron_Paul...,Austrian school of economics,/* Criticism */
2008-10-28T03:39:58+00:00,248127164,248118474,1,Ron_Paul...Ron_Paul...,Austrian school of economics,/* Criticism */
2008-10-28T03:17:19+00:00,248124128,247347276,1,Ron_Paul...Ron_Paul...,Business cycle,/* Austrian school */
2008-10-27T23:36:42+00:00,248086888,248086769,1,Ron_Paul...Ron_Paul...,Talk:Austrian business cycle theory,/* Great Depression */
2008-10-27T23:36:11+00:00,248086769,247755458,1,Ron_Paul...Ron_Paul...,Talk:Austrian business cycle theory,/* Great Depression */
2008-10-27T12:09:39+00:00,247966439,247966319,1,Ron_Paul...Ron_Paul...,Austrian business cycle theory,/* Critiques */
2008-10-27T12:08:31+00:00,247966319,247966072,1,Ron_Paul...Ron_Paul...,Austrian business cycle theory,/* Critiques */
2008-10-27T12:06:07+00:00,247966072,247965828,1,Ron_Paul...Ron_Paul...,Austrian business cycle theory,You can't have EXACTLY the same criticism in two sections of the same article.  That is ridiculous.  Make the choice - put it in the intro or put it here.  But don't repeat yourself. Over and over...
2008-10-27T12:03:38+00:00,247965828,247965560,1,Ron_Paul...Ron_Paul...,Austrian business cycle theory,/* Empirical research */
2008-10-27T12:00:58+00:00,247965560,247965433,1,Ron_Paul...Ron_Paul...,Austrian business cycle theory,minor clean up
2008-10-27T11:59:39+00:00,247965433,247965200,1,Ron_Paul...Ron_Paul...,Austrian business cycle theory,typo
2008-10-27T11:57:28+00:00,247965200,247965052,1,Ron_Paul...Ron_Paul...,Austrian business cycle theory,Cleaner expression.  I hope everyone can live with this.  It should be acceptable to all.  Yes?
2008-10-27T11:55:48+00:00,247965052,247939349,1,Ron_Paul...Ron_Paul...,Austrian business cycle theory,"Made the Laidler comment less POV and less loaded.  ""In his view..."" (which is unarguable).  The other expression was (obviously) a loaded gun."
2008-10-27T07:38:40+00:00,247939349,247939093,1,Ron_Paul...Ron_Paul...,Austrian business cycle theory,/* Assertions */
2008-10-27T07:35:49+00:00,247939093,247939011,1,Ron_Paul...Ron_Paul...,Austrian business cycle theory,/* Assertions */
2008-10-27T07:34:57+00:00,247939011,247838721,1,Ron_Paul...Ron_Paul...,Austrian business cycle theory,/* Assertions */
2008-10-26T10:38:18+00:00,247748154,247747975,1,Ron_Paul...Ron_Paul...,Criticism of fractional-reserve banking,
2008-10-26T10:36:23+00:00,247747975,247661956,1,Ron_Paul...Ron_Paul...,Criticism of fractional-reserve banking,
2008-10-25T03:01:24+00:00,247520434,246931452,1,Ron_Paul...Ron_Paul...,William Paterson (banker),Emerson7 deleted without reason.  This famous quote is referenced in other articles so is needed here.
2008-10-25T02:53:39+00:00,247519565,247519504,1,Ron_Paul...Ron_Paul...,Austrian business cycle theory,
2008-10-25T02:53:02+00:00,247519504,247144834,1,Ron_Paul...Ron_Paul...,Austrian business cycle theory,
2008-10-23T11:02:49+00:00,247146361,246918882,1,Ron_Paul...Ron_Paul...,Criticism of fractional-reserve banking,/* Conventional economic analysis */  Typo
2008-10-23T10:56:29+00:00,247145711,245096200,1,Ron_Paul...Ron_Paul...,Debt bondage,/* See also */
2008-10-23T10:47:24+00:00,247144834,246658369,1,Ron_Paul...Ron_Paul...,Austrian business cycle theory,Finally.  Thanks.
2008-10-23T06:32:32+00:00,247119164,247118841,1,Ron_Paul...Ron_Paul...,Austrian school of economics,/* The Austrian view of inflation */
2008-10-23T06:29:16+00:00,247118841,246565995,1,Ron_Paul...Ron_Paul...,Austrian school of economics,/* Specific contributions */
2008-10-22T10:31:07+00:00,246919372,246684479,1,Ron_Paul...Ron_Paul...,Fractional-reserve banking,Revert vandalism from recidivist offender
2008-10-22T10:25:48+00:00,246918882,246545633,1,Ron_Paul...Ron_Paul...,Criticism of fractional-reserve banking,
2008-10-21T09:58:48+00:00,246691193,246690780,1,Ron_Paul...Ron_Paul...,Talk:Austrian business cycle theory,/* Please someone correct the grammer */
2008-10-21T09:54:43+00:00,246690780,246658513,1,Ron_Paul...Ron_Paul...,Talk:Austrian business cycle theory,/* Please someone correct the grammer */
2008-10-19T05:15:13+00:00,246231090,245846195,1,Ron_Paul...Ron_Paul...,User:Ron Paul...Ron Paul...,
2008-10-19T05:10:59+00:00,246230592,246120559,1,Ron_Paul...Ron_Paul...,User talk:Lawrencekhoo,/* Barnstars for work on the Luzon Empire -  Ancient Tondo merger */
2008-10-19T05:08:21+00:00,246230299,244386587,1,Ron_Paul...Ron_Paul...,Talk:Austrian business cycle theory,
2008-10-17T12:06:12+00:00,245875503,245870627,1,Ron_Paul...Ron_Paul...,Fractional-reserve banking,
2008-10-17T07:55:17+00:00,245848200,245848129,1,Ron_Paul...Ron_Paul...,Criticism of fractional-reserve banking,
2008-10-17T07:54:29+00:00,245848129,245848018,1,Ron_Paul...Ron_Paul...,Criticism of fractional-reserve banking,
2008-10-17T07:53:22+00:00,245848018,245847800,1,Ron_Paul...Ron_Paul...,Criticism of fractional-reserve banking,
2008-10-17T07:51:02+00:00,245847800,245699223,1,Ron_Paul...Ron_Paul...,Criticism of fractional-reserve banking,
2008-10-17T07:46:31+00:00,245847366,245847313,1,Ron_Paul...Ron_Paul...,Fractional-reserve banking,/* History */
2008-10-17T07:46:03+00:00,245847313,245847153,1,Ron_Paul...Ron_Paul...,Fractional-reserve banking,/* History */
2008-10-17T07:44:19+00:00,245847153,245846997,1,Ron_Paul...Ron_Paul...,Fractional-reserve banking,/* History */
2008-10-17T07:42:45+00:00,245846997,245846931,1,Ron_Paul...Ron_Paul...,Fractional-reserve banking,
2008-10-17T07:42:03+00:00,245846931,245846907,1,Ron_Paul...Ron_Paul...,Fractional-reserve banking,
2008-10-17T07:41:43+00:00,245846907,245846060,1,Ron_Paul...Ron_Paul...,Fractional-reserve banking,Older definition was changed without reason given and the older one was better.  Much much better.
2008-10-17T07:35:33+00:00,245846285,0,1,Ron_Paul...Ron_Paul...,User talk:Ron Paul...Ron Paul...,[[WP:AES|←]]Created page with 'Please don't waste your time putting nice messages up. I won't last long enough for it to matter.'
2008-10-17T07:34:48+00:00,245846195,0,1,Ron_Paul...Ron_Paul...,User:Ron Paul...Ron Paul...,[[WP:AES|←]]Created page with 'I'm a hard money advocate.  I hope to mask my NPOV with sufficient POV to be OK.'
2008-10-17T07:33:30+00:00,245846060,245679575,1,Ron_Paul...Ron_Paul...,Fractional-reserve banking,Unexplained edits deleting some substantive stuff.  Please explain on the talk page before editing further
2010-09-04T05:59:57+00:00,382822208,382822140,1,ShadowMan4444,Wikipedia:Sockpuppet investigations/Karmaisking,/*  Comments by accused parties  &nbsp;&nbsp;   */
2010-09-04T05:56:37+00:00,382821930,382821757,1,ShadowMan4444,User talk:Darkstar1st,Undid revision 382821757 by [[Special:Contributions/BigK HeX|BigK HeX]] ([[User talk:BigK HeX|talk]])
2010-09-04T05:51:30+00:00,382821486,382818413,1,ShadowMan4444,User talk:Darkstar1st,YOU HAVE NO ADMIN RIGHTS TO DELETE FROM DS1'S TALK PAGE.  DS1 CAN DELETE AFTER READING.  UNBELIEVABLE.
2010-09-04T05:46:00+00:00,382820965,382820551,1,ShadowMan4444,Wikipedia:Sockpuppet investigations/Karmaisking,
2010-09-04T05:39:57+00:00,382820369,382820282,1,ShadowMan4444,Wikipedia:Sockpuppet investigations/Karmaisking,/*  Comments by accused parties  &nbsp;&nbsp;   */
2010-09-04T05:38:04+00:00,382820187,382819580,1,ShadowMan4444,Wikipedia:Sockpuppet investigations/Karmaisking,/*  Comments by accused parties  &nbsp;&nbsp;   */
2010-09-04T05:32:55+00:00,382819580,382819049,1,ShadowMan4444,Wikipedia:Sockpuppet investigations/Karmaisking,/*  Comments by accused parties  &nbsp;&nbsp;   */
2010-09-04T05:12:07+00:00,382817483,382817288,1,ShadowMan4444,Wikipedia:Sockpuppet investigations/Karmaisking,/*  Comments by accused parties  &nbsp;&nbsp;   */
2010-09-04T05:10:07+00:00,382817288,382816421,1,ShadowMan4444,Wikipedia:Sockpuppet investigations/Karmaisking,/*  Comments by accused parties  &nbsp;&nbsp;   */
2010-09-04T04:38:06+00:00,382813888,382813843,1,ShadowMan4444,User talk:BlueRobe,/* Good to see you back! */
2010-09-04T04:37:39+00:00,382813843,382813169,1,ShadowMan4444,User talk:BlueRobe,/* Good to see you back! */
2010-09-04T04:36:13+00:00,382813692,382811557,1,ShadowMan4444,User talk:Darkstar1st,/* Interesting new angle on left-wing zealot Carol Moore: Is she being funded? */
2010-09-04T04:35:09+00:00,382813560,382813423,1,ShadowMan4444,User:ShadowMan4444,
2010-09-04T04:33:57+00:00,382813423,0,1,ShadowMan4444,User:ShadowMan4444,[[WP:AES|←]]Created page with '四四四四'
2010-09-04T04:31:35+00:00,382813169,382813123,1,ShadowMan4444,User talk:BlueRobe,/* Good to see you back! */
2010-09-04T04:31:10+00:00,382813123,382813058,1,ShadowMan4444,User talk:BlueRobe,/* Good to see you back! */
2010-09-04T04:30:30+00:00,382813058,382812677,1,ShadowMan4444,User talk:BlueRobe,
2010-07-29T14:07:29+00:00,376091060,376067411,1,Shylock'sCompassion,Affirmative action,more accurate description and ref
2010-07-29T13:06:19+00:00,376082090,0,1,Shylock'sCompassion,User:Shylock'sCompassion,[[WP:AES|←]]Created page with 'I can't help but laugh.'
2010-07-29T10:24:22+00:00,376064026,376063337,1,Shylock'sCompassion,Affirmative action,/* Israel */  Heading needs no link.
2010-07-29T10:16:52+00:00,376063337,375651404,1,Shylock'sCompassion,Affirmative action,Headings shouldn't have links - people generally know what 'Europe' is so there's no need to link it.  Clean up refs.
2011-04-06T01:54:45+00:00,422621878,422621795,1,Silver-Metal'sSuperman,Steve Keen,/* Criticisms */
2011-04-06T01:54:04+00:00,422621795,422621400,1,Silver-Metal'sSuperman,Steve Keen,/* Criticisms */
2011-04-06T01:51:00+00:00,422621400,420354660,1,Silver-Metal'sSuperman,Steve Keen,/* Criticisms */
2010-11-12T21:53:59+00:00,396394097,396321901,1,SilverLongsWillBreakTheBanksters,Austrian school of economics,"Could respectfully suggest that the page be protected, to show that insane Keynesian Zealot-Zombies have again taken over, compulsively censoring the page? Thanks!"
2012-03-19T12:13:28+00:00,482711689,482711634,1,Smith'sFistUpGoldman'sMuppet,User talk:Smith'sFistUpGoldman'sMuppet,/* March 2012 */
2012-03-19T12:13:01+00:00,482711634,482711582,1,Smith'sFistUpGoldman'sMuppet,User talk:Smith'sFistUpGoldman'sMuppet,/* March 2012 */
2012-03-19T12:12:30+00:00,482711582,482710601,1,Smith'sFistUpGoldman'sMuppet,User talk:Smith'sFistUpGoldman'sMuppet,
2012-03-19T11:25:47+00:00,482706803,482366586,1,Smith'sFistUpGoldman'sMuppet,User talk:Smith'sFistUpGoldman'sMuppet,/* March 2012 */
2012-03-17T02:30:01+00:00,482301805,482299884,1,Smith'sFistUpGoldman'sMuppet,Austrian business cycle theory,
2010-08-31T13:04:16+00:00,382062755,380108307,1,Smjc,Last Train Home (film),/* External link */
2010-08-16T08:04:11+00:00,379182031,377227219,1,Smjc,Cotai Water Jet,/* Accidents */
2010-08-14T07:03:39+00:00,378838804,378391147,1,Smjc,Hot Air,
2010-08-06T13:45:23+00:00,377478023,322644325,1,Smjc,Chatham Road,
2010-08-03T11:17:55+00:00,376921670,373385732,1,Smjc,The Wonderful Horrible Life of Leni Riefenstahl,
2010-08-02T14:48:06+00:00,376765175,375952532,1,Smjc,Dieppe Raid,
2010-06-24T06:09:45+00:00,369868629,327538690,1,Smjc,Explaining Hitler,/* See also */ Updated link
2010-06-23T08:35:37+00:00,369703371,369698731,1,Smjc,GetUp!,added link
2010-06-08T06:04:43+00:00,366731870,354507005,1,Smjc,Lion Air Australia,/* Ownership and plans */
2010-06-05T04:59:21+00:00,366141408,365872135,1,Smjc,Sydney,
2010-06-03T08:51:12+00:00,365795712,365793090,1,Smjc,CentralWorld,/* Restaurant & Eateries */
2010-06-03T08:22:49+00:00,365793090,365301360,1,Smjc,CentralWorld,/* 2010 Red Shirt Protest and The Following Mass Arson */
2010-05-04T05:59:26+00:00,360005794,358575747,1,Smjc,Westfield Sydney,/* External links */
2010-05-04T04:47:03+00:00,359997727,359921829,1,Smjc,Interstate 45,/* Exit list */
2010-05-03T05:26:18+00:00,359787411,355901025,1,Smjc,"Blackheath, New South Wales",/* Local attractions */
2010-05-03T05:23:48+00:00,359787142,359186045,1,Smjc,V. Gordon Childe,/* Later Years and Death */
2010-04-30T07:10:16+00:00,359214628,359165532,1,Smjc,Night of the Living Dead,/* Plot */
2010-04-29T07:43:43+00:00,359014063,337771928,1,Smjc,Darkside (Tim Minchin album),
2009-11-12T05:29:14+00:00,325386989,319053341,1,Smjc,Royal Commission into the New South Wales Police Service,"/* External links */ Corrected one link, deleted link to page not found"
2009-10-07T02:00:04+00:00,318371682,318368924,1,Smjc,Lego Mindstorms,
2009-10-07T01:41:46+00:00,318368924,318138707,1,Smjc,Lego Mindstorms,added link to MIT media lab
2009-10-05T06:45:56+00:00,317996446,294927628,1,Smjc,"South Brisbane, Queensland",
2009-10-05T06:42:46+00:00,317996148,316811055,1,Smjc,Template:Brisbane bridges navigation,
2009-09-22T00:49:35+00:00,315405164,315404987,1,Smjc,Ashes to Ashes (David Bowie song),/* Cultural reference */
2009-09-22T00:48:24+00:00,315404987,315404795,1,Smjc,Ashes to Ashes (David Bowie song),/* Release */
2009-09-22T00:47:04+00:00,315404795,312932640,1,Smjc,Ashes to Ashes (David Bowie song),/* Video */
2009-09-21T08:48:58+00:00,315258622,308680505,1,Smjc,Cooperative education,/* Schneider's foundations */
2009-09-14T08:36:16+00:00,313790685,313781089,1,Smjc,Kenneth Grahame,/* Life */
2009-09-04T06:13:52+00:00,311789623,310607137,1,Smjc,MDA (TV series),
2009-09-01T06:36:59+00:00,311227962,273387937,1,Smjc,Flying Dutchman (train),/* Early history */
2009-08-22T03:09:15+00:00,309364263,307564223,1,Smjc,Falls Festival,
2009-08-15T03:34:37+00:00,308064092,300586215,1,Smjc,The Willow Tree (novel),
2009-08-15T01:21:55+00:00,308048258,293765226,1,Smjc,Carlos Fitzcarrald,
2009-08-13T09:33:22+00:00,307715270,299187143,1,Smjc,New Christs,
2009-08-09T05:31:54+00:00,306924440,305679308,1,Smjc,Balti (food),
2009-08-09T05:23:13+00:00,306923454,303669869,1,Smjc,Phall,
2009-08-06T07:41:25+00:00,306359713,304069300,1,Smjc,"Bromelton, Queensland",
2009-07-25T01:17:20+00:00,304044714,302729797,1,Smjc,Nan Witcomb,
2009-07-20T07:13:43+00:00,303089359,298992359,1,Smjc,Campus of Iowa State University,
2009-07-20T05:34:59+00:00,303079459,303049754,1,Smjc,1896,
2009-07-05T05:55:40+00:00,300357330,296204730,1,Smjc,List of people with surname Tully,
2009-07-05T05:53:57+00:00,300357198,291916089,1,Smjc,Golden Gumboot,
2009-06-27T02:34:38+00:00,298867497,296357697,1,Smjc,The Transformation of the World into Music,
2009-06-19T02:04:18+00:00,297281991,296140031,1,Smjc,John Gray (philosopher),
2009-03-21T04:08:44+00:00,278672713,192637148,1,Smjc,File:Michael Charlton.jpg,
2009-03-21T03:23:41+00:00,278666921,277153985,1,Smjc,Puno,/* Overview */
2008-07-19T03:49:46+00:00,226571620,226283083,1,Smjc,Death of Carlo Giuliani,Removed '[[boy]]': he was 23 years of age
2008-07-01T06:52:21+00:00,222815269,213929313,1,Smjc,List of railway accidents and incidents in India,
2008-06-17T07:23:18+00:00,219875815,189303732,1,Smjc,MBK Center,
2008-06-01T05:14:28+00:00,216341461,209495104,1,Smjc,The Discovery of America by Christopher Columbus,I'd like to see a reference to this article.
2008-06-01T05:07:14+00:00,216340460,212631369,1,Smjc,Inderjit Singh Bindra Stadium,spelling
2008-05-22T06:32:06+00:00,214133010,213357562,1,Smjc,Normie Rowe,/* National Service — 1968–1972 */ spelling correction
2008-05-19T07:31:46+00:00,213421997,209449616,1,Smjc,Sophie Scholl – The Final Days,/* Plot */  added link
2007-11-02T11:58:52+00:00,168710086,168155931,1,Smjc,"Connaught Place, New Delhi",
2007-11-02T07:07:33+00:00,168683644,168683491,1,Smjc,David Hanson (robotics designer),/* Publications */
2007-11-02T07:05:23+00:00,168683491,165661120,1,Smjc,David Hanson (robotics designer),/* Publications */
2007-11-02T04:21:15+00:00,168665305,165160905,1,Smjc,Southbank Centre,/* History and development */
2007-11-01T02:22:37+00:00,168433983,164875139,1,Smjc,Tim Lopes (journalist),/* Theories */
2007-10-21T09:35:14+00:00,166021166,165193779,1,Smjc,History of Bangladesh,/* Post-Independence */
2007-10-12T04:20:04+00:00,163975843,163301669,1,Smjc,If,/* In other entertainment */  expanded description of film
2007-10-09T10:01:35+00:00,163293361,161977393,1,Smjc,Black flight,
2007-10-09T06:38:49+00:00,163272109,163221025,1,Smjc,Danger Hiptop,"/* Tips, Tricks, and Hidden Features */"
2007-10-06T09:53:39+00:00,162633971,162624241,1,Smjc,John Atchison,
2007-09-30T11:40:33+00:00,161303579,161039513,1,Smjc,"Sunnybank Hills, Queensland",
2007-09-22T08:18:02+00:00,159560512,156252313,1,Smjc,Replicas (album),Now links directly to Kraftwerk's album
2007-09-21T12:02:31+00:00,159372468,159080635,1,Smjc,Chuck E. Cheese,/* Trivia */
2007-09-13T05:07:44+00:00,157546081,155610999,1,Smjc,Transmission Voie-Machine,/* References */
2007-09-02T11:11:58+00:00,155192207,153411577,1,Smjc,Imaad Wasif,
2007-09-02T10:47:13+00:00,155189599,155139926,1,Smjc,Small Faces,"/* Post-breakup projects, reunion and legacy */"
2007-09-02T10:31:17+00:00,155187967,84807111,1,Smjc,Woodstock Pub,"Added link to the Woodstock Bar and Grill, Bangkok"
2007-09-02T10:20:57+00:00,155186901,155186665,1,Smjc,Boilermaker,/* R Stamp Welding */
2007-09-02T10:18:44+00:00,155186665,150591088,1,Smjc,Boilermaker,/* R Stamp Welding */
2007-09-02T10:14:15+00:00,155186249,153988587,1,Smjc,Gateway,"/* Places */ added Gateway Bridge, Brisbane"
2007-09-02T09:35:19+00:00,155182776,136360258,1,Smjc,Baileys,
2007-09-01T07:22:04+00:00,154973788,136153665,1,Smjc,Kremer prize,
2007-08-31T03:26:26+00:00,154734989,142439353,1,Smjc,"Victoria Park, Barnet",/* External links */ minor improvement
2007-08-26T10:16:54+00:00,153716600,153716323,1,Smjc,Eastern Suburbs railway line,/* 1976 Review */
2007-08-26T10:14:15+00:00,153716323,153440104,1,Smjc,Eastern Suburbs railway line,/* 1976 Review */
2007-08-19T10:42:29+00:00,152222627,151178457,1,Smjc,What a Year,
2007-07-31T21:28:09+00:00,148361124,144049859,1,Smjc,W. Montgomery Watt,/* Biography */
2007-07-29T10:02:36+00:00,147828798,120959536,1,Smjc,Hong Kong China Ferry Terminal,
2007-07-22T08:51:20+00:00,146283053,144771273,1,Smjc,King's Cross Central,/* Key Facts */
2007-07-22T08:32:26+00:00,146281046,144961577,1,Smjc,Festival Hall (Melbourne),
2007-07-22T08:17:17+00:00,146279358,143917157,1,Smjc,The Masters Apprentices,/* 1970-1972 */
2007-07-19T10:46:35+00:00,145645460,145645081,1,Smjc,The Chicks,
2007-07-19T10:44:02+00:00,145645081,145611330,1,Smjc,The Chicks,
2007-07-15T10:22:47+00:00,144769998,143920883,1,Smjc,Donald Michie,/* Early life and career */
2007-07-15T06:35:01+00:00,144748407,122195044,1,Smjc,Xiaozi,
2007-07-15T05:42:18+00:00,144742750,144317617,1,Smjc,Yeoville,
2007-07-11T10:19:45+00:00,143936588,142411416,1,Smjc,Lingchi,/* Uses in fiction */
2007-07-10T11:04:02+00:00,143703219,143502525,1,Smjc,James Nachtwey,/* Photography */ deleted vandalism
2007-02-19T08:15:08+00:00,109261711,106556454,1,Smjc,MS Silja Serenade,
2007-02-19T07:55:49+00:00,109259529,108563135,1,Smjc,Hughes H-4 Hercules,/* History */
2007-02-08T14:12:34+00:00,106571960,99749554,1,Smjc,Shaker (gene),
2007-02-04T14:08:55+00:00,105569367,105515480,1,Smjc,Firozpur,
2007-01-06T06:00:07+00:00,98819791,98659428,1,Smjc,Instant noodles,/* In Argentina */
2007-01-01T06:50:56+00:00,97682699,97681286,1,Smjc,Leonard Fraser,
2007-01-01T05:54:12+00:00,97676917,97609714,1,Smjc,Seacon Square,
2006-11-29T06:04:37+00:00,90848941,89134250,1,Smjc,Richard Williams (journalist),
2006-11-27T02:58:46+00:00,90355438,88701569,1,Smjc,Estadio Nacional Julio Martínez Prádanos,/* Use as Concentration Camp */
2006-11-26T09:34:52+00:00,90193026,90033585,1,Smjc,"National Library, Singapore",/* Current Building */
2006-11-22T01:10:23+00:00,89348804,89192781,1,Smjc,Jean-Claude Romand,/* The deception */
2006-11-13T03:20:27+00:00,87465171,87351475,1,Smjc,NF-κB,/* References */
2006-11-01T04:33:00+00:00,84977504,72778886,1,Smjc,June Child,
2006-10-31T02:21:10+00:00,84754719,79047614,1,Smjc,Wardour Street,
2006-10-27T06:00:37+00:00,84000441,83451436,1,Smjc,Ron Asheton,removed vandalism
2006-10-27T05:54:39+00:00,83999886,83999817,1,Smjc,Rob Younger,
2006-10-27T05:53:51+00:00,83999817,83732219,1,Smjc,Rob Younger,
2006-10-25T07:07:18+00:00,83592257,79664211,1,Smjc,Alfredo Astiz,/* Falklands War */
2006-10-22T06:43:30+00:00,82962433,82634819,1,Smjc,The Creeper (Jeepers Creepers),/* History */
2006-10-08T08:13:53+00:00,80175654,79324990,1,Smjc,Maqbool,/* Plot */
2006-09-24T06:34:26+00:00,77494291,73310348,1,Smjc,Icebreaker (non-fiction book),/* Suvorov's Thesis */
2006-09-19T03:51:17+00:00,76522321,75847234,1,Smjc,Ralph H. Fowler,
2006-09-15T12:11:11+00:00,75871070,75871012,1,Smjc,"St Vincent's Hospital, Sydney",
2006-09-15T12:10:34+00:00,75871012,71573521,1,Smjc,"St Vincent's Hospital, Sydney",
2006-09-08T09:08:18+00:00,74493945,63809264,1,Smjc,Blitz!,
2006-09-07T00:09:42+00:00,74235338,70827888,1,Smjc,Rupert Sheldrake,/* ''New Science of Life'' */
2006-08-30T03:07:12+00:00,72746650,72411884,1,Smjc,Bioinformatics,
2006-08-29T08:26:47+00:00,72570274,72135680,1,Smjc,SpaceX Dragon,/* NASA launch parnership */
2006-08-28T06:03:06+00:00,72337091,72266712,1,Smjc,Aleksandr Solzhenitsyn,/* In the Soviet Union */
2006-08-24T12:25:25+00:00,71583513,71583460,1,Smjc,Deaths in 2006,/* [[August 22|22]] */
2006-08-23T07:53:11+00:00,71339591,71266689,1,Smjc,Zoom Airlines,/* History of Zoom Airlines */
2006-08-18T06:28:33+00:00,70376100,70181203,1,Smjc,Billboard,/* '''Video BillBoards in India''' */  Quick attempt to fix up grammar and spelling.
2006-08-14T16:38:54+00:00,69611508,64005262,1,Smjc,Vellore,/* Yelagiri */
2006-08-14T10:15:33+00:00,69556375,69148673,1,Smjc,Guru Arjan,
2006-08-14T07:53:08+00:00,69543236,64431880,1,Smjc,Katpadi,
2006-08-14T04:25:57+00:00,69519015,68030470,1,Smjc,Gympie Pyramid,
2006-08-11T03:46:16+00:00,68953213,68896109,1,Smjc,Led Zeppelin,"/* ""A tragic end"" */"
2006-08-07T14:47:56+00:00,68198011,68072803,1,Smjc,Surfing,/* History */
2006-08-01T06:28:05+00:00,66995092,66995062,1,Smjc,Dilli Haat,
2006-08-01T06:27:45+00:00,66995062,58385054,1,Smjc,Dilli Haat,
2006-07-31T14:01:11+00:00,66854792,64174560,1,Smjc,Freetown International Airport,
2006-07-31T13:27:06+00:00,66850714,66831577,1,Smjc,Intel Core (microarchitecture),
2006-07-31T04:33:00+00:00,66799729,61683658,1,Smjc,Alcor Life Extension Foundation,Updated membership figures
2006-07-24T14:04:35+00:00,65553670,57983085,1,Smjc,Terry Sejnowski,
2006-07-21T04:09:59+00:00,64977062,64976952,1,Smjc,Bảo Đại,/* Life in Exile */
2006-07-21T04:08:38+00:00,64976952,64962615,1,Smjc,Bảo Đại,/* Life in Exile */
2006-07-19T23:37:29+00:00,64754828,64754763,1,Smjc,Intel Core (microarchitecture),/* Desktops */
2006-07-19T23:37:01+00:00,64754763,64689525,1,Smjc,Intel Core (microarchitecture),/* Laptops */
2006-07-19T16:52:31+00:00,64689525,64585252,1,Smjc,Intel Core (microarchitecture),/* Laptops */
2006-07-17T12:10:32+00:00,64273634,63386407,1,Smjc,John Stalker,/* External links */  Deleted advertising link
2006-07-12T05:31:05+00:00,63364393,61953651,1,Smjc,Eli M. Black,
2006-07-11T05:35:33+00:00,63177799,63044719,1,Smjc,Poul Andersen (resistance member),Gun emplacements (not replacements)
2006-07-05T13:21:18+00:00,62178133,58014647,1,Smjc,"Matara, Sri Lanka",/* Matara City */
2006-06-28T08:15:25+00:00,60984204,55971748,1,Smjc,Fon,
2006-06-27T02:48:08+00:00,60769918,60720254,1,Smjc,Werner Herzog,/* Trivia */
2006-06-21T12:03:45+00:00,59798258,58674142,1,Smjc,Korat Royal Thai Air Force Base,/* Location */
2006-06-16T14:04:05+00:00,58942618,58687622,1,Smjc,Thaksin Shinawatra,/* South Thailand insurgency */
2006-06-16T10:36:19+00:00,58921676,58682802,1,Smjc,Karnataka,/* Religion */
2006-06-15T14:28:42+00:00,58766757,58766645,1,Smjc,Deaths in January 2006,/* [[January 23|23]] */
2006-06-15T14:27:56+00:00,58766645,58181172,1,Smjc,Deaths in January 2006,/* [[January 20|20]] */
2006-06-15T13:36:17+00:00,58759820,58499376,1,Smjc,Deaths in February 2006,/* [[February 28|28]] */
2006-06-14T13:23:58+00:00,58572785,58087041,1,Smjc,Vada (food),
2006-06-12T15:53:52+00:00,58222223,58219303,1,Smjc,Michael Bartosh,
2006-06-10T04:53:46+00:00,57827552,53891470,1,Smjc,Bloody Sunday (film),
2006-06-10T04:26:12+00:00,57825096,56233931,1,Smjc,Bad Boy,
2006-06-10T04:22:57+00:00,57824761,57806386,1,Smjc,Ringo Starr,/* After The Beatles */
2006-06-04T14:52:29+00:00,56829922,56757253,1,Smjc,Overclocking,/* Disadvantages */
2006-06-03T12:56:06+00:00,56655273,56643676,1,Smjc,Food and drink prohibitions,/* Dogs */
2006-06-03T10:34:12+00:00,56644082,54785588,1,Smjc,Tash (Narnia),/* Commentary */
2006-06-03T10:22:10+00:00,56643249,53056455,1,Smjc,Mr. Tumnus,
2006-05-29T14:43:32+00:00,55742326,50596400,1,Smjc,Nickel and Dimed,
2006-05-29T14:30:24+00:00,55740753,53953041,1,Smjc,Monmouth,/* Famous people */
2006-05-26T04:02:58+00:00,55195064,50543084,1,Smjc,Suzi Lovegrove,
2006-05-25T10:00:20+00:00,55043691,54723795,1,Smjc,Methuselah Mouse Prize,/* External links */
2006-05-24T22:41:26+00:00,54968523,54482529,1,Smjc,Ted Kaczynski,/* Early life and mathematical career */
2006-05-24T15:30:33+00:00,54901573,45219908,1,Smjc,National Gallery of Australia,
2006-05-23T13:42:14+00:00,54706069,54705952,1,Smjc,Deaths in 2006,
2006-05-23T13:27:08+00:00,54704029,42788810,1,Smjc,Vernon Benjamin Mountcastle,
2006-05-23T07:57:10+00:00,54671710,54670092,1,Smjc,Arthur McDuffie,
2006-05-22T04:06:42+00:00,54471010,54468122,1,Smjc,2006 Montenegrin independence referendum,/* Referendum rules contraversies */
2006-05-20T17:32:12+00:00,54217934,53501008,1,Smjc,Ford Tempo,
2006-05-19T05:44:57+00:00,53987946,48570247,1,Smjc,Susan George,/* Actress filmography */
2006-05-18T13:03:40+00:00,53851877,53843179,1,Smjc,Michael O'Riordan,/* Early Life */
2006-05-17T14:25:31+00:00,53686437,53608391,1,Smjc,Crank (person),/* Crank tactics and techniques */
2006-05-17T11:45:57+00:00,53668356,53288391,1,Smjc,Battle of Messines (1917),
2006-05-16T14:11:13+00:00,53507970,53120263,1,Smjc,Kali,/* Recent iconographical development */
2006-05-14T13:14:05+00:00,53145465,28505822,1,Smjc,Wertheim,
2006-05-12T03:49:31+00:00,52781000,52780952,1,Smjc,High-fructose corn syrup,/* External links */
2006-05-12T03:49:03+00:00,52780952,52780655,1,Smjc,High-fructose corn syrup,/* External links */
2006-05-12T03:46:29+00:00,52780655,52780508,1,Smjc,High-fructose corn syrup,/* External links */
2006-05-12T03:45:19+00:00,52780508,52082497,1,Smjc,High-fructose corn syrup,/* Health */
2006-05-11T13:28:28+00:00,52654947,51215411,1,Smjc,Vaishya,
2006-05-11T13:24:46+00:00,52654580,52627904,1,Smjc,Kshatriya,
2006-05-10T08:14:54+00:00,52456859,52374439,1,Smjc,ISRO,/* Future */
2006-05-10T06:45:22+00:00,52450028,51414122,1,Smjc,Electronic City,
2008-05-10T10:28:51+00:00,211439969,211397036,1,Socppt11,Talk:Criticism of fractional-reserve banking,"Is it ."" or "". ?  I never know.  I think in Britain it's "". and in the US it's ."""
2008-05-10T03:52:36+00:00,211398152,210841867,1,Socppt11,Credit crunch,
2008-05-10T03:18:07+00:00,211393679,211087172,1,Socppt11,Criticism of fractional-reserve banking,The truth will set you free
2008-05-10T03:17:08+00:00,211393553,211393138,1,Socppt11,Talk:Criticism of fractional-reserve banking,
2008-05-10T03:13:49+00:00,211393138,211200219,1,Socppt11,Talk:Criticism of fractional-reserve banking,Goodbye cruel world..........................
2008-05-09T05:25:52+00:00,211200219,211086609,1,Socppt11,Talk:Criticism of fractional-reserve banking,
2008-05-12T01:54:02+00:00,211780411,211598014,1,Socppt12,Fractional-reserve banking,"No sane person advocates full reserves without countervailing measures.  This should stay regardless of sockpuppet status. It's refed and makes sense.  ""Full reserves"" don't make sense without this."
2008-05-23T11:22:22+00:00,214399318,214399059,1,Socppt13,Talk:Criticism of fractional-reserve banking,"Please don't kill me, I'm just referencing my own statements, cleaning up the comments.  Pleeaaasssseeeeee...."
2008-05-23T11:19:53+00:00,214399059,214398839,1,Socppt13,Talk:Criticism of fractional-reserve banking,/* Simple Description */
2008-05-23T11:17:24+00:00,214398839,214372987,1,Socppt13,Talk:Criticism of fractional-reserve banking,/* Simple Description */
2008-05-23T07:15:08+00:00,214372987,214372854,1,Socppt13,Talk:Criticism of fractional-reserve banking,"/* ""Money as Debt"" as an External Link */"
2008-05-23T07:13:48+00:00,214372854,214372751,1,Socppt13,Talk:Criticism of fractional-reserve banking,"/* ""Money as Debt"" as an External Link */"
2008-05-23T07:12:43+00:00,214372751,214372398,1,Socppt13,Talk:Criticism of fractional-reserve banking,"/* ""Money as Debt"" as an External Link */"
2008-05-23T07:09:40+00:00,214372398,214371189,1,Socppt13,Talk:Criticism of fractional-reserve banking,"/* ""Money as Debt"" as an External Link */"
2008-05-23T06:58:02+00:00,214371189,214369646,1,Socppt13,Talk:Criticism of fractional-reserve banking,/* Simple Description */
2008-05-23T06:43:18+00:00,214369646,214368735,1,Socppt13,Talk:Criticism of fractional-reserve banking,"/* Please, I don't want to fight you (but I will if I have to, and I'll have fun doing it) */"
2008-05-23T06:35:27+00:00,214368735,214368540,1,Socppt13,Talk:Criticism of fractional-reserve banking,"/* Please, I don't want to fight you (but I will if I have to, and I'll have fun doing it) */"
2008-05-23T06:33:31+00:00,214368540,214367691,1,Socppt13,Talk:Criticism of fractional-reserve banking,"/* Please, I don't want to fight you (but I will if I have to, and I'll have fun doing it) */"
2008-05-23T06:25:15+00:00,214367691,214367487,1,Socppt13,Talk:Criticism of fractional-reserve banking,"/* ""Money as Debt"" as an External Link */"
2008-05-23T06:23:19+00:00,214367487,214347331,1,Socppt13,Talk:Criticism of fractional-reserve banking,
2008-05-22T23:10:54+00:00,214302880,214171302,1,Socppt13,Talk:Criticism of fractional-reserve banking,"/* ""Money as Debt"" as an External Link */"
2008-05-22T11:54:45+00:00,214171302,214170092,1,Socppt13,Talk:Criticism of fractional-reserve banking,"/* ""Money as Debt"" as an External Link */"
2008-05-22T11:45:59+00:00,214170092,214169460,1,Socppt13,Talk:Criticism of fractional-reserve banking,Whoops.
2008-05-22T11:41:41+00:00,214169460,214154747,1,Socppt13,Talk:Criticism of fractional-reserve banking,"/* ""Money as Debt"" as an External Link */"
2008-05-22T05:05:58+00:00,214122943,214122856,1,Socppt13,Talk:Criticism of fractional-reserve banking,[[WP:UNDO|Undid]] revision 214122856 by [[Special:Contributions/Socppt13|Socppt13]] ([[User talk:Socppt13|talk]])
2008-05-22T05:05:14+00:00,214122856,214122691,1,Socppt13,Talk:Criticism of fractional-reserve banking,"/* Please, I don't want to fight you (but I will if I have to, and I'll have fun doing it) */"
2008-05-22T05:03:53+00:00,214122691,213899988,1,Socppt13,Talk:Criticism of fractional-reserve banking,"/* Please, I don't want to fight you (but I will if I have to, and I'll have fun doing it) */"
2008-05-21T07:32:12+00:00,213899988,213899932,1,Socppt13,Talk:Criticism of fractional-reserve banking,"/* ""Money as Debt"" as an External Link */"
2008-05-21T07:31:33+00:00,213899932,213896214,1,Socppt13,Talk:Criticism of fractional-reserve banking,"/* ""Money as Debt"" as an External Link */"
2008-05-19T01:48:05+00:00,213378875,213371593,1,Socppt13,Talk:Criticism of fractional-reserve banking,/* Condemned Socppt11's dying wish */
2008-05-19T01:09:09+00:00,213371593,213371509,1,Socppt13,Talk:Criticism of fractional-reserve banking,/* Condemned Socppt11's dying wish */
2008-05-19T01:08:44+00:00,213371509,213017047,1,Socppt13,Talk:Criticism of fractional-reserve banking,/* Condemned Socppt11's dying wish */
2008-05-17T10:45:29+00:00,213016356,213016218,1,Socppt13,Talk:Criticism of fractional-reserve banking,"/* ""Money as Debt"" as an External Link */"
2008-05-17T10:44:02+00:00,213016218,213015984,1,Socppt13,Talk:Criticism of fractional-reserve banking,"/* ""Money as Debt"" as an External Link */"
2008-05-17T10:41:24+00:00,213015984,213015882,1,Socppt13,Talk:Criticism of fractional-reserve banking,"/* ""Money as Debt"" as an External Link */"
2008-05-17T10:40:03+00:00,213015882,213015307,1,Socppt13,Talk:Criticism of fractional-reserve banking,"/* ""Money as Debt"" as an External Link */"
2008-05-17T10:33:40+00:00,213015307,213014961,1,Socppt13,Talk:Criticism of fractional-reserve banking,"/* ""Money as Debt"" as an External Link */"
2008-05-17T10:29:42+00:00,213014961,213014787,1,Socppt13,Talk:Criticism of fractional-reserve banking,"/* ""Money as Debt"" as an External Link */"
2008-05-17T10:27:57+00:00,213014787,213014663,1,Socppt13,Talk:Criticism of fractional-reserve banking,"/* ""Money as Debt"" as an External Link */"
2008-05-17T10:26:41+00:00,213014663,213014604,1,Socppt13,Talk:Criticism of fractional-reserve banking,"/* ""Money as Debt"" as an External Link */"
2008-05-17T10:26:00+00:00,213014604,213010958,1,Socppt13,Talk:Criticism of fractional-reserve banking,"/* ""Money as Debt"" as an External Link */"
2008-05-17T09:45:51+00:00,213010958,212986901,1,Socppt13,Talk:Criticism of fractional-reserve banking,/* Simple Description */
2008-05-16T14:32:20+00:00,212839006,212838483,1,Socppt13,Talk:Criticism of fractional-reserve banking,"/* ""Money as Debt"" as an External Link */"
2008-05-16T14:29:09+00:00,212838483,212838312,1,Socppt13,Talk:Criticism of fractional-reserve banking,"/* ""Money as Debt"" as an External Link */"
2008-05-16T14:28:06+00:00,212838312,212837936,1,Socppt13,Talk:Criticism of fractional-reserve banking,"/* ""Money as Debt"" as an External Link */"
2008-05-16T14:26:07+00:00,212837936,212837461,1,Socppt13,Talk:Criticism of fractional-reserve banking,"/* ""Money as Debt"" as an External Link */"
2008-05-16T14:22:12+00:00,212837228,212835832,1,Socppt13,Talk:Criticism of fractional-reserve banking,"/* ""Money as Debt"" as an External Link */"
2008-05-16T14:14:26+00:00,212835832,212835550,1,Socppt13,Talk:Criticism of fractional-reserve banking,"/* ""Money as Debt"" as an External Link */"
2008-05-16T14:11:50+00:00,212835352,212786723,1,Socppt13,Talk:Criticism of fractional-reserve banking,
2008-05-16T07:04:46+00:00,212786723,212786458,1,Socppt13,Talk:Criticism of fractional-reserve banking,/* Simple Description */
2008-05-16T07:02:42+00:00,212786458,212786332,1,Socppt13,Talk:Criticism of fractional-reserve banking,/* Simple Description */
2008-05-16T07:01:30+00:00,212786332,212786275,1,Socppt13,Talk:Criticism of fractional-reserve banking,/* Simple Description */
2008-05-16T07:00:47+00:00,212786275,212778299,1,Socppt13,Talk:Criticism of fractional-reserve banking,/* Simple Description */
2008-05-26T12:49:03+00:00,215039733,215038941,1,Socppt14,Talk:Criticism of fractional-reserve banking,/* Friedman et al claims */
2008-05-26T12:42:53+00:00,215038941,215029140,1,Socppt14,Talk:Criticism of fractional-reserve banking,/* Friedman et al claims */
2008-05-26T11:30:04+00:00,215029140,215028867,1,Socppt14,Talk:Criticism of fractional-reserve banking,"/* Please, I don't want to fight you (but I will if I have to, and I'll have fun doing it) */"
2008-05-26T11:27:55+00:00,215028867,214832440,1,Socppt14,Talk:Criticism of fractional-reserve banking,"/* Please, I don't want to fight you (but I will if I have to, and I'll have fun doing it) */"
2008-05-25T02:39:04+00:00,214749314,214582670,1,Socppt14,Talk:Criticism of fractional-reserve banking,"Mac, you settle the dispute and I promise I'll be as quiet as a Fox on FRB in WP.  Or the Big Bad British Banks will burn."
2008-05-24T06:40:40+00:00,214582670,214578983,1,Socppt14,Talk:Criticism of fractional-reserve banking,"/* ""Money as Debt"" as an External Link */"
2008-05-24T06:00:48+00:00,214578983,214577544,1,Socppt14,Talk:Criticism of fractional-reserve banking,
2008-05-24T05:59:17+00:00,214578828,214578708,1,Socppt14,Debt,[[WP:UNDO|Undid]] revision 214578708 by [[Special:Contributions/Socppt14|Socppt14]] ([[User talk:Socppt14|talk]])
2008-05-24T05:58:00+00:00,214578708,213197051,1,Socppt14,Debt,
2008-05-24T05:45:53+00:00,214577544,214399318,1,Socppt14,Talk:Criticism of fractional-reserve banking,"Remember, remember the 15th of November..."
2008-05-30T00:36:04+00:00,215859038,215858850,1,Socppt15,Talk:Fractional-reserve banking,/* Question about fractional banking */  Typos
2008-05-30T00:35:05+00:00,215858850,215858300,1,Socppt15,Talk:Fractional-reserve banking,/* Question about fractional banking */
2008-05-30T00:31:57+00:00,215858300,215847913,1,Socppt15,Talk:Fractional-reserve banking,"Sorry, didn't like the ""shouting"" myself.  Tried to tone down the emphases (I always shout too loud - sorry everyone)"
2008-05-29T23:35:34+00:00,215847913,215845720,1,Socppt15,Talk:Fractional-reserve banking,/* Question about fractional banking */
2008-05-29T23:23:46+00:00,215845720,215752864,1,Socppt15,Talk:Fractional-reserve banking,/* Question about fractional banking */
2008-05-29T14:21:40+00:00,215739724,215738787,1,Socppt15,Talk:Fractional-reserve banking,/* Question about fractional banking */
2008-05-29T14:15:51+00:00,215738787,215725188,1,Socppt15,Talk:Fractional-reserve banking,/* Question about fractional banking */
2008-05-29T12:48:44+00:00,215725188,215724731,1,Socppt15,Talk:Fractional-reserve banking,/* Question about fractional banking */
2008-05-29T12:45:44+00:00,215724731,215724647,1,Socppt15,Talk:Fractional-reserve banking,/* Question about fractional banking */
2008-05-29T12:45:10+00:00,215724647,215724535,1,Socppt15,Talk:Fractional-reserve banking,/* Question about fractional banking */
2008-05-29T12:44:24+00:00,215724535,215724432,1,Socppt15,Talk:Fractional-reserve banking,/* Question about fractional banking */
2008-05-29T12:43:42+00:00,215724432,215723941,1,Socppt15,Talk:Fractional-reserve banking,/* Question about fractional banking */
2008-05-29T12:40:21+00:00,215723941,215723286,1,Socppt15,Talk:Fractional-reserve banking,/* Question about fractional banking */
2008-05-29T12:35:54+00:00,215723286,215712307,1,Socppt15,Talk:Fractional-reserve banking,/* Question about fractional banking */
2008-05-29T08:09:58+00:00,215691170,215690532,1,Socppt15,Talk:Fractional-reserve banking,/* Question about fractional banking */
2008-05-29T08:04:35+00:00,215690532,215689937,1,Socppt15,Talk:Fractional-reserve banking,/* Question about fractional banking */
2008-05-29T07:59:47+00:00,215689937,215689174,1,Socppt15,Talk:Fractional-reserve banking,/* Question about fractional banking */
2008-05-29T07:52:48+00:00,215689174,215688883,1,Socppt15,Talk:Fractional-reserve banking,/* Question about fractional banking */
2008-05-29T07:50:07+00:00,215688883,215688696,1,Socppt15,Talk:Fractional-reserve banking,/* Question about fractional banking */
2008-05-29T07:48:27+00:00,215688696,215688452,1,Socppt15,Talk:Fractional-reserve banking,/* Question about fractional banking */
2008-05-29T07:46:20+00:00,215688452,215688369,1,Socppt15,Talk:Fractional-reserve banking,/* Question about fractional banking */
2008-05-29T07:45:33+00:00,215688369,215688282,1,Socppt15,Talk:Fractional-reserve banking,/* Question about fractional banking */
2008-05-29T07:44:52+00:00,215688282,215688205,1,Socppt15,Talk:Fractional-reserve banking,/* Question about fractional banking */
2008-05-29T07:44:17+00:00,215688205,215688142,1,Socppt15,Talk:Fractional-reserve banking,/* Question about fractional banking */
2008-05-29T07:43:49+00:00,215688142,215688041,1,Socppt15,Talk:Fractional-reserve banking,/* Question about fractional banking */
2008-05-29T07:42:58+00:00,215688041,215687442,1,Socppt15,Talk:Fractional-reserve banking,/* Question about fractional banking */
2008-05-29T07:11:59+00:00,215684889,215682923,1,Socppt15,Fractional-reserve banking,/* Criticism */  minor tidy up
2008-05-29T06:52:36+00:00,215682923,215559456,1,Socppt15,Fractional-reserve banking,
2008-05-29T06:48:38+00:00,215682503,215682463,1,Socppt15,Monetary reform,
2008-05-29T06:48:16+00:00,215682463,215682396,1,Socppt15,Monetary reform,
2008-05-29T06:47:41+00:00,215682396,215682171,1,Socppt15,Monetary reform,
2008-05-29T06:45:36+00:00,215682171,215681701,1,Socppt15,Monetary reform,
2008-05-29T06:41:11+00:00,215681701,215681637,1,Socppt15,Monetary reform,
2008-05-29T06:40:27+00:00,215681637,215681356,1,Socppt15,Monetary reform,
2008-05-29T06:37:24+00:00,215681356,215681270,1,Socppt15,Monetary reform,
2008-05-29T06:36:31+00:00,215681270,215681183,1,Socppt15,Monetary reform,
2008-05-29T06:35:40+00:00,215681183,215680837,1,Socppt15,Monetary reform,
2008-05-29T06:32:16+00:00,215680837,215680776,1,Socppt15,Monetary reform,
2008-05-29T06:31:42+00:00,215680776,215679620,1,Socppt15,Monetary reform,
2008-05-29T06:28:47+00:00,215680437,215680408,1,Socppt15,Criticism of fractional-reserve banking,/* See also */  Added ABCT
2008-05-29T06:28:28+00:00,215680408,215680245,1,Socppt15,Criticism of fractional-reserve banking,/* See also */
2008-05-29T06:27:06+00:00,215680245,215067080,1,Socppt15,Criticism of fractional-reserve banking,Monetary Reform page is actually readable now (incredible!) so added it as a link.  No one should have a problem with this.
2008-05-29T06:21:48+00:00,215679620,215194098,1,Socppt15,Monetary reform,
2008-05-27T05:49:16+00:00,215214021,215039733,1,Socppt15,Talk:Criticism of fractional-reserve banking,"/* ""Money as Debt"" as an External Link */"
2008-05-27T03:09:14+00:00,215194098,215192705,1,Socppt15,Monetary reform,
2008-05-27T03:00:46+00:00,215192705,215192566,1,Socppt15,Monetary reform,
2008-05-27T03:00:03+00:00,215192566,215192167,1,Socppt15,Monetary reform,
2008-05-27T02:57:20+00:00,215192167,215190769,1,Socppt15,Monetary reform,
2008-05-27T02:48:56+00:00,215190769,215189495,1,Socppt15,Monetary reform,
2008-05-27T02:40:49+00:00,215189495,215189306,1,Socppt15,Monetary reform,
2008-05-27T02:39:34+00:00,215189306,214602600,1,Socppt15,Monetary reform,
2008-05-27T02:35:24+00:00,215188625,191266602,1,Socppt15,User talk:RubyJester,
2008-05-27T02:33:42+00:00,215188336,215188288,1,Socppt15,Talk:Monetary reform,/* Major overhaul */
2008-05-27T02:33:25+00:00,215188288,212422664,1,Socppt15,Talk:Monetary reform,/* Major overhaul */
2008-05-27T01:51:35+00:00,215181681,209486826,1,Socppt15,Talk:Credit crunch,
2010-09-22T11:35:04+00:00,386293182,386293057,1,SummerOfOurDiscontent,User:SummerOfOurDiscontent,
2010-09-22T11:34:13+00:00,386293057,0,1,SummerOfOurDiscontent,User:SummerOfOurDiscontent,[[WP:AES|←]]Created page with 'Jabba the Hutt is off the plantation...'
2010-09-22T11:09:57+00:00,386289465,386289285,1,SummerOfOurDiscontent,User talk:Xerographica,/* Survey */
2010-09-22T11:08:43+00:00,386289285,386289152,1,SummerOfOurDiscontent,User talk:Xerographica,/* Survey */
2010-09-22T11:07:49+00:00,386289152,386288357,1,SummerOfOurDiscontent,User talk:Xerographica,/* Survey */
2010-09-22T11:02:44+00:00,386288357,386288250,1,SummerOfOurDiscontent,User talk:Xerographica,/* Survey */
2010-09-22T11:02:01+00:00,386288250,386288005,1,SummerOfOurDiscontent,User talk:Xerographica,/* Survey */
2010-09-22T11:00:12+00:00,386288005,386286970,1,SummerOfOurDiscontent,User talk:Xerographica,/* Survey */
2015-02-21T09:42:16+00:00,648165386,648165304,1,TakeItUpTheGreekEconomy,Austrian school of economics,/* Business cycles */
2015-02-21T09:41:15+00:00,648165304,646479712,1,TakeItUpTheGreekEconomy,Austrian school of economics,/* Business cycles */
2015-02-21T09:10:56+00:00,648162388,648018646,1,TakeItUpTheGreekEconomy,Fractional-reserve banking,/* Criticisms of fractional-reserve banking */  Quote essential to verify earlier statement (had gone missing in earlier edits)
2015-02-21T09:08:43+00:00,648162130,0,1,TakeItUpTheGreekEconomy,User:TakeItUpTheGreekEconomy,Created blank page
2010-05-18T12:35:54+00:00,362800730,362800091,1,TaxPaysParasites,Wikipedia:Sockpuppet investigations/Karmaisking,/*  Comments by accused parties  */
2010-05-18T12:31:16+00:00,362800147,362799846,1,TaxPaysParasites,Talk:Austrian business cycle theory,
2010-05-18T12:26:08+00:00,362799514,362799098,1,TaxPaysParasites,Talk:Austrian business cycle theory,
2010-05-18T12:22:34+00:00,362799031,362798696,1,TaxPaysParasites,Austrian school of economics,"Boy, that was quick.  You must be as 'obsessed' as I am over AS...ha ha ha"
2010-05-18T12:06:42+00:00,362797044,362597924,1,TaxPaysParasites,Talk:Austrian business cycle theory,
2010-05-18T11:46:05+00:00,362794452,362782038,1,TaxPaysParasites,Austrian school of economics,It's hardly going to change so currently is incorrect
2010-05-18T11:44:16+00:00,362794202,0,1,TaxPaysParasites,User:TaxPaysParasites,"[[WP:AES|←]]Created page with '1.  Tax is theft. 2.  Tax flows go to govt parasites and bondholder parasites, who create legal obligations to pay oppressive debt out of nothing. 3.  Growing the p...'"
2010-10-19T13:03:43+00:00,391636403,391622601,1,The1792CoinageActHauntsAllZombies,Jenna Jameson,/* Early life */  'was' more correct tense and there's no indication from the refs whatsoever that she was very close to her brother.
2010-10-19T12:43:20+00:00,391633626,391629743,1,The1792CoinageActHauntsAllZombies,Full-reserve banking,/* Debate over full-reserve banking */
2010-10-19T12:08:08+00:00,391629743,391629262,1,The1792CoinageActHauntsAllZombies,Full-reserve banking,/* Criticisms of full-reserve banking combined with a gold standard */
2010-10-19T12:04:01+00:00,391629262,391627858,1,The1792CoinageActHauntsAllZombies,Full-reserve banking,/* Criticism */
2010-10-19T11:51:26+00:00,391627858,391620818,1,The1792CoinageActHauntsAllZombies,Full-reserve banking,Page needs to be locked or I'll keep reverting.  I need to see the padlock on the mainpage.
2010-10-19T09:08:19+00:00,391610278,389437251,1,The1792CoinageActHauntsAllZombies,Full-reserve banking,
2010-10-19T09:05:56+00:00,391610042,0,1,The1792CoinageActHauntsAllZombies,User:The1792CoinageActHauntsAllZombies,[[WP:AES|←]]Created page with '[http://www.youtube.com/watch?v=fWe3jyqRo-4&feature=player_embedded The Constitution says the Federal government has the right to coin money and to regulate its val...'
2009-01-17T08:35:25+00:00,264633720,264633685,1,TheMadnessStopsHere,Monetary reform,
2009-01-17T08:34:54+00:00,264633685,264633667,1,TheMadnessStopsHere,Monetary reform,
2009-01-17T08:34:37+00:00,264633667,264633635,1,TheMadnessStopsHere,Monetary reform,
2009-01-17T08:34:20+00:00,264633635,264007741,1,TheMadnessStopsHere,Monetary reform,
2010-08-11T09:46:41+00:00,378336225,0,1,TheNaturalLaw,User:EndgameOfDeath,[[WP:AES|←]]Created page with 'Karmaisking has been censored on WP.'
2008-07-30T03:01:58+00:00,228734859,227414956,1,ThePosthumousAward,Talk:Credit crunch,
2011-07-05T02:37:39+00:00,437805072,437711089,1,TheUSisGreeceX100,Quantitative easing,
2007-10-05T12:40:48+00:00,162445115,162357219,1,Timothymak,Talk:Criticism of fractional-reserve banking,
2007-09-22T10:46:30+00:00,159575558,158439957,1,Timothymak,Credit tightening,
2007-09-22T10:38:24+00:00,159574689,159574466,1,Timothymak,Credit crunch,
2007-09-22T10:36:42+00:00,159574466,159552518,1,Timothymak,Credit crunch,
2007-09-22T06:45:33+00:00,159552518,158901126,1,Timothymak,Credit crunch,
2007-09-20T21:50:54+00:00,159259140,159177148,1,Timothymak,Talk:Criticism of fractional-reserve banking,/* This page should be integrated with the existing pages */
2007-09-20T15:07:10+00:00,159177170,159171231,1,Timothymak,Criticism of fractional-reserve banking,"[[WP:AES|←]]Replaced page with 'A '''debt-based monetary system''' is an economic system where [[money]] is created primarily through [[fractional reserve banking]] techniques, using the [[privat...'"
2007-09-20T15:05:18+00:00,159176862,159176505,1,Timothymak,Talk:Criticism of fractional-reserve banking,"/* For starters, what is wrong with this article as it is */"
2007-09-20T14:19:14+00:00,159169160,159167447,1,Timothymak,Talk:Criticism of fractional-reserve banking,"/* For starters, what is wrong with this article as it is */"
2007-09-20T14:05:02+00:00,159166890,159166517,1,Timothymak,Talk:Criticism of fractional-reserve banking,"/* For starters, what is wrong with this article as it is */"
2007-09-20T14:00:42+00:00,159166239,159165671,1,Timothymak,Criticism of fractional-reserve banking,Let's talk...let's be reasonable...don't be angry.
2007-09-20T13:56:34+00:00,159165499,159163827,1,Timothymak,Criticism of fractional-reserve banking,Let's discuss this like (educated) adults before we start spraying graffiti.  Let's talk on the discussion page.  Please
2007-09-20T13:52:52+00:00,159164908,159164799,1,Timothymak,Talk:Criticism of fractional-reserve banking,"/* For starters, what is wrong with this article as it is */"
2007-09-20T13:39:41+00:00,159162684,159159941,1,Timothymak,Talk:Criticism of fractional-reserve banking,/* Propaganda */
2007-09-20T13:30:04+00:00,159161321,159158819,1,Timothymak,Criticism of fractional-reserve banking,"""32F"" please provide relevant qualifications in financial economics.  Or leave it to someone with a PhD in finance to evaluate.  Only AFTER such an evaluation should ""POV"" be placed on the article."
2007-09-20T12:52:14+00:00,159156132,159150124,1,Timothymak,Criticism of fractional-reserve banking,Refer to dispute page.  Someone with at least a PhD in financial economics please evaluate.  Others please comment on something you know something about.
2007-09-20T12:49:59+00:00,159155852,159150043,1,Timothymak,Talk:Criticism of fractional-reserve banking,/* Propaganda */
2007-09-20T11:33:35+00:00,159146905,159146361,1,Timothymak,Criticism of fractional-reserve banking,/* Policy Implications */
2007-09-20T11:28:20+00:00,159146361,159146037,1,Timothymak,Criticism of fractional-reserve banking,/* Policy Implications */
2007-09-20T11:25:09+00:00,159146037,159145804,1,Timothymak,Criticism of fractional-reserve banking,/* Policy Implications */
2007-09-20T11:22:55+00:00,159145804,159145520,1,Timothymak,Criticism of fractional-reserve banking,/* Policy Implications */
2007-09-20T11:20:18+00:00,159145520,159144650,1,Timothymak,Criticism of fractional-reserve banking,/* Policy Implications */
2007-09-20T11:11:33+00:00,159144650,159144484,1,Timothymak,Criticism of fractional-reserve banking,/* Policy Implications */
2007-09-20T11:10:01+00:00,159144484,159141619,1,Timothymak,Criticism of fractional-reserve banking,/* Policy Implications */
2007-09-20T11:06:18+00:00,159144024,159143428,1,Timothymak,Credit cycle,
2007-09-20T11:00:39+00:00,159143428,159143326,1,Timothymak,Credit cycle,
2007-09-20T10:59:38+00:00,159143326,0,1,Timothymak,Credit cycle,"[[WP:AES|←]]Created page with 'The ""credit cycle"" is the boom-bust cycle of [[debt money]] creation inherent in a [[debt-based monetary system]].    During the upward phase in the [[credit cycle]...'"
2007-09-20T10:43:51+00:00,159141619,159141539,1,Timothymak,Criticism of fractional-reserve banking,/* Policy Implications */
2007-09-20T10:43:09+00:00,159141539,159141271,1,Timothymak,Criticism of fractional-reserve banking,/* Policy Implications */
2007-09-20T10:40:42+00:00,159141271,159141058,1,Timothymak,Criticism of fractional-reserve banking,/* Policy Implications */
2007-09-20T10:38:59+00:00,159141058,159140940,1,Timothymak,Criticism of fractional-reserve banking,/* Policy Implications */
2007-09-20T10:37:55+00:00,159140940,159139794,1,Timothymak,Criticism of fractional-reserve banking,/* Policy Implications */
2007-09-20T10:28:33+00:00,159139794,159139348,1,Timothymak,Criticism of fractional-reserve banking,/* Policy Implications */
2007-09-20T10:24:56+00:00,159139348,159139187,1,Timothymak,Criticism of fractional-reserve banking,/* Policy Implications */
2007-09-20T10:23:20+00:00,159139187,158945171,1,Timothymak,Criticism of fractional-reserve banking,
2007-09-19T13:32:03+00:00,158945171,158944828,1,Timothymak,Criticism of fractional-reserve banking,/* Policy Implications */
2007-09-19T13:30:06+00:00,158944828,158944661,1,Timothymak,Criticism of fractional-reserve banking,/* Policy Implications */
2007-09-19T13:29:07+00:00,158944661,158944059,1,Timothymak,Criticism of fractional-reserve banking,/* Policy Implications */
2007-09-19T13:25:32+00:00,158944059,158943134,1,Timothymak,Criticism of fractional-reserve banking,/* Policy Implications */
2007-09-19T13:20:07+00:00,158943134,158941897,1,Timothymak,Criticism of fractional-reserve banking,/* Policy Implications */
2007-09-19T13:12:08+00:00,158941897,158940590,1,Timothymak,Criticism of fractional-reserve banking,/* Policy Implications */
2007-09-19T13:03:24+00:00,158940590,158940129,1,Timothymak,Criticism of fractional-reserve banking,/* Economic and political opposition */
2007-09-19T13:00:10+00:00,158940129,158894588,1,Timothymak,Criticism of fractional-reserve banking,/* Economic and political opposition */
2007-09-15T13:09:46+00:00,158043703,158035540,1,Timothymak,Criticism of fractional-reserve banking,/* Policy Implications */
2007-09-15T11:55:31+00:00,158035540,158035406,1,Timothymak,Criticism of fractional-reserve banking,/* Policy Implications */
2007-09-15T11:54:05+00:00,158035406,158033675,1,Timothymak,Criticism of fractional-reserve banking,/* Policy Implications */
2007-09-15T11:34:26+00:00,158033675,158033553,1,Timothymak,Criticism of fractional-reserve banking,/* Policy Implications */
2007-09-15T11:33:04+00:00,158033553,158033374,1,Timothymak,Criticism of fractional-reserve banking,
2007-09-15T11:31:14+00:00,158033374,158033230,1,Timothymak,Criticism of fractional-reserve banking,/* Policy Implications */
2007-09-15T11:29:47+00:00,158033230,158021343,1,Timothymak,Criticism of fractional-reserve banking,/* Policy Implications */
2007-09-14T14:36:03+00:00,157853400,157847606,1,Timothymak,Criticism of fractional-reserve banking,
2007-09-14T14:00:21+00:00,157847606,157847301,1,Timothymak,Criticism of fractional-reserve banking,/* Policy Implications */
2007-09-14T13:58:33+00:00,157847301,157846428,1,Timothymak,Criticism of fractional-reserve banking,/* Policy Implications */
2007-09-14T13:53:01+00:00,157846428,157840411,1,Timothymak,Criticism of fractional-reserve banking,/* Policy Implications */
2007-09-14T13:12:15+00:00,157840411,157839161,1,Timothymak,Criticism of fractional-reserve banking,/* External links */
2007-09-14T12:35:23+00:00,157835283,157827062,1,Timothymak,Criticism of fractional-reserve banking,/* Policy Implications */
2007-09-14T11:23:59+00:00,157827062,157799193,1,Timothymak,Criticism of fractional-reserve banking,/* Policy Implications */
2007-09-13T15:00:07+00:00,157622465,157529216,1,Timothymak,Money,/* See also */
2007-09-13T14:56:25+00:00,157621676,157621449,1,Timothymak,Criticism of fractional-reserve banking,/* Policy Implications */
2007-09-13T14:55:11+00:00,157621449,157621002,1,Timothymak,Criticism of fractional-reserve banking,/* Policy Implications */
2007-09-13T14:52:55+00:00,157621002,157565067,1,Timothymak,Criticism of fractional-reserve banking,
2007-09-13T10:24:12+00:00,157584645,157519676,1,Timothymak,Political positions of Ron Paul,/* Importance of hard currency */
2007-09-13T07:35:26+00:00,157565067,157564720,1,Timothymak,Criticism of fractional-reserve banking,/* Policy Implications */
2007-09-13T07:33:05+00:00,157564720,157564630,1,Timothymak,Criticism of fractional-reserve banking,/* Policy Implications */
2007-09-13T07:32:18+00:00,157564630,157564521,1,Timothymak,Criticism of fractional-reserve banking,/* Policy Implications */
2007-09-13T07:31:33+00:00,157564521,157564446,1,Timothymak,Criticism of fractional-reserve banking,/* Policy Implications */
2007-09-13T07:30:58+00:00,157564446,157559152,1,Timothymak,Criticism of fractional-reserve banking,/* Policy Implications */
2007-09-13T06:52:18+00:00,157559152,157558147,1,Timothymak,Criticism of fractional-reserve banking,
2007-09-13T06:44:10+00:00,157558147,157359692,1,Timothymak,Criticism of fractional-reserve banking,/* Policy Implications */
2007-09-12T11:58:09+00:00,157359692,157359516,1,Timothymak,Criticism of fractional-reserve banking,/* Policy Implications */
2007-09-12T11:56:50+00:00,157359516,157352078,1,Timothymak,Criticism of fractional-reserve banking,/* Policy Implications */
2007-09-12T10:57:51+00:00,157352078,157287779,1,Timothymak,Criticism of fractional-reserve banking,/* Economic and political opposition */
2007-09-12T01:58:19+00:00,157287779,157287485,1,Timothymak,Criticism of fractional-reserve banking,/* Policy Implications */
2007-09-12T01:56:36+00:00,157287485,157285351,1,Timothymak,Criticism of fractional-reserve banking,/* Policy Implications */
2007-09-12T01:44:39+00:00,157285351,157282389,1,Timothymak,Criticism of fractional-reserve banking,/* Policy Implications */
2007-09-12T01:29:06+00:00,157282389,157159665,1,Timothymak,Criticism of fractional-reserve banking,/* Economic and political opposition */
2007-09-11T14:38:34+00:00,157159665,157110543,1,Timothymak,Criticism of fractional-reserve banking,/* Policy Implications */
2007-09-11T09:32:19+00:00,157120238,157120092,1,Timothymak,Credit crunch,
2007-09-11T09:30:51+00:00,157120092,157119929,1,Timothymak,Credit crunch,
2007-09-11T09:29:29+00:00,157119929,156484188,1,Timothymak,Credit crunch,
2007-09-11T09:28:48+00:00,157119837,157119796,1,Timothymak,Credit tightening,
2007-09-11T09:28:28+00:00,157119796,157024110,1,Timothymak,Credit tightening,
2007-09-11T08:00:05+00:00,157110543,157110355,1,Timothymak,Criticism of fractional-reserve banking,/* Policy Implications */
2007-09-11T07:58:13+00:00,157110355,157108416,1,Timothymak,Criticism of fractional-reserve banking,/* Policy Implications */
2007-09-11T07:39:49+00:00,157108416,157108296,1,Timothymak,Criticism of fractional-reserve banking,/* Policy Implications */
2007-09-11T07:38:36+00:00,157108296,157107135,1,Timothymak,Criticism of fractional-reserve banking,/* Policy Implications */
2007-09-11T07:28:14+00:00,157107135,157106598,1,Timothymak,Criticism of fractional-reserve banking,/* Policy Implications */
2007-09-11T07:22:56+00:00,157106598,157106427,1,Timothymak,Criticism of fractional-reserve banking,/* Policy Implications */
2007-09-11T07:21:21+00:00,157106427,157106276,1,Timothymak,Criticism of fractional-reserve banking,/* Policy Implications */
2007-09-11T07:20:01+00:00,157106276,157106061,1,Timothymak,Criticism of fractional-reserve banking,/* Policy Implications */
2007-09-11T07:18:09+00:00,157106061,157105204,1,Timothymak,Criticism of fractional-reserve banking,/* Policy Implications */
2007-09-11T07:10:27+00:00,157105204,157104961,1,Timothymak,Criticism of fractional-reserve banking,/* Policy Implications */
2007-09-11T07:08:23+00:00,157104961,157104842,1,Timothymak,Criticism of fractional-reserve banking,/* Policy Implications */
2007-09-11T07:07:17+00:00,157104842,157074500,1,Timothymak,Criticism of fractional-reserve banking,/* Policy Implications */
2007-09-11T03:24:40+00:00,157074500,157073947,1,Timothymak,Criticism of fractional-reserve banking,/* Economic and political opposition */
2007-09-11T03:20:46+00:00,157073947,157073822,1,Timothymak,Criticism of fractional-reserve banking,/* Policy Implications */
2007-09-11T03:19:43+00:00,157073822,157072334,1,Timothymak,Criticism of fractional-reserve banking,/* Policy Implications */
2007-09-11T03:09:16+00:00,157072334,157072045,1,Timothymak,Criticism of fractional-reserve banking,/* Policy Implications */
2007-09-11T03:07:32+00:00,157072045,157070672,1,Timothymak,Criticism of fractional-reserve banking,/* Policy Implications */
2007-09-11T02:58:09+00:00,157070672,157069659,1,Timothymak,Criticism of fractional-reserve banking,/* Policy Implications */
2007-09-11T02:51:05+00:00,157069659,157069353,1,Timothymak,Criticism of fractional-reserve banking,/* Policy Implications */
2007-09-11T02:49:11+00:00,157069353,157068758,1,Timothymak,Criticism of fractional-reserve banking,/* Policy Implications */
2007-09-11T02:44:47+00:00,157068758,157068695,1,Timothymak,Criticism of fractional-reserve banking,/* Economic and political opposition */
2007-09-11T02:44:24+00:00,157068695,157033643,1,Timothymak,Criticism of fractional-reserve banking,/* Economic and political opposition */
2007-09-10T23:18:43+00:00,157033643,157033415,1,Timothymak,Criticism of fractional-reserve banking,/* Policy Implications */
2007-09-10T23:17:31+00:00,157033415,157032882,1,Timothymak,Criticism of fractional-reserve banking,/* Policy Implications */
2007-09-10T23:14:34+00:00,157032882,157032612,1,Timothymak,Criticism of fractional-reserve banking,/* Policy Implications */
2007-09-10T23:13:03+00:00,157032612,157032379,1,Timothymak,Criticism of fractional-reserve banking,/* Policy Implications */
2007-09-10T23:11:42+00:00,157032379,157032261,1,Timothymak,Criticism of fractional-reserve banking,/* Policy Implications */
2007-09-10T23:10:53+00:00,157032261,157032076,1,Timothymak,Criticism of fractional-reserve banking,/* Policy Implications */
2007-09-10T23:09:58+00:00,157032076,157031751,1,Timothymak,Criticism of fractional-reserve banking,/* Policy Implications */
2007-09-10T23:08:17+00:00,157031751,157030261,1,Timothymak,Criticism of fractional-reserve banking,/* Policy Implications */
2007-09-10T22:59:41+00:00,157030261,157026886,1,Timothymak,Criticism of fractional-reserve banking,/* Economic and political opposition */
2007-09-10T22:41:53+00:00,157026886,157025571,1,Timothymak,Criticism of fractional-reserve banking,/* See also */
2007-09-10T22:34:37+00:00,157025571,157025232,1,Timothymak,Criticism of fractional-reserve banking,/* Policy Implications */
2007-09-10T22:32:56+00:00,157025232,157025052,1,Timothymak,Criticism of fractional-reserve banking,/* Policy Implications */
2007-09-10T22:32:06+00:00,157025052,157024852,1,Timothymak,Criticism of fractional-reserve banking,/* Policy Implications */
2007-09-10T22:31:05+00:00,157024852,157023815,1,Timothymak,Criticism of fractional-reserve banking,/* Policy Implications */
2007-09-10T22:27:27+00:00,157024110,156921302,1,Timothymak,Credit tightening,
2007-09-10T22:25:56+00:00,157023815,156923157,1,Timothymak,Criticism of fractional-reserve banking,
2007-09-10T13:50:48+00:00,156923157,156922900,1,Timothymak,Criticism of fractional-reserve banking,/* Policy Implications */
2007-09-10T13:49:18+00:00,156922900,156849549,1,Timothymak,Criticism of fractional-reserve banking,/* Policy Implications */
2007-09-10T13:40:02+00:00,156921302,156921100,1,Timothymak,Credit tightening,
2007-09-10T13:38:49+00:00,156921100,156920961,1,Timothymak,Credit tightening,
2007-09-10T13:38:00+00:00,156920961,156848912,1,Timothymak,Credit tightening,
2007-09-10T01:22:43+00:00,156827071,156826996,1,Timothymak,Credit tightening,
2007-09-10T01:22:16+00:00,156826996,156826723,1,Timothymak,Credit tightening,
2007-09-10T01:20:45+00:00,156826723,156826605,1,Timothymak,Credit tightening,
2007-09-10T01:19:57+00:00,156826605,156826519,1,Timothymak,Credit tightening,
2007-09-10T01:19:27+00:00,156826519,0,1,Timothymak,Credit tightening,"[[WP:AES|←]]Created page with 'A ""credit squeeze"" occurs in a [[debt-based monetary system]] when new debt money is difficult to access without a high [[credit rating]]. At such times marginal bo...'"
2007-09-10T01:09:03+00:00,156824835,151516888,1,Timothymak,Hard currency,/* See also */
2007-09-10T01:03:02+00:00,156823880,156823622,1,Timothymak,Criticism of fractional-reserve banking,/* Policy Implications */
2007-09-10T01:01:21+00:00,156823622,156645457,1,Timothymak,Criticism of fractional-reserve banking,/* Policy Implications */
2007-09-09T06:43:14+00:00,156645457,156643855,1,Timothymak,Criticism of fractional-reserve banking,/* Policy Implications */
2007-09-09T06:32:14+00:00,156643855,156643585,1,Timothymak,Criticism of fractional-reserve banking,/* Policy Implications */
2007-09-09T06:30:50+00:00,156643585,156643343,1,Timothymak,Criticism of fractional-reserve banking,/* Policy Implications */
2007-09-09T06:29:18+00:00,156643343,156642478,1,Timothymak,Criticism of fractional-reserve banking,/* Policy Implications */
2007-09-09T06:23:56+00:00,156642478,156642339,1,Timothymak,Criticism of fractional-reserve banking,/* Policy Implications */
2007-09-09T06:23:08+00:00,156642339,156640448,1,Timothymak,Criticism of fractional-reserve banking,/* Policy Implications */
2007-09-09T06:10:46+00:00,156640448,156636033,1,Timothymak,Criticism of fractional-reserve banking,/* Policy Implications */
2007-09-09T05:40:00+00:00,156636033,156609565,1,Timothymak,Criticism of fractional-reserve banking,/* Policy Implications */
2007-09-09T02:55:40+00:00,156610603,156609995,1,Timothymak,Ron Paul,
2007-09-09T02:51:51+00:00,156609995,156593073,1,Timothymak,Ron Paul,
2007-09-09T02:49:14+00:00,156609565,156607295,1,Timothymak,Criticism of fractional-reserve banking,/* See also */
2007-09-09T02:34:15+00:00,156607295,156606402,1,Timothymak,Criticism of fractional-reserve banking,/* Economic and political opposition */
2007-09-09T02:27:39+00:00,156606402,156606178,1,Timothymak,Criticism of fractional-reserve banking,/* Policy Implications */
2007-09-09T02:26:16+00:00,156606178,156485450,1,Timothymak,Criticism of fractional-reserve banking,/* Policy Implications */
2007-09-08T14:21:40+00:00,156485450,156485297,1,Timothymak,Criticism of fractional-reserve banking,/* Policy Implications */
2007-09-08T14:20:37+00:00,156485297,156270495,1,Timothymak,Criticism of fractional-reserve banking,/* Policy Implications */
2007-09-08T14:12:32+00:00,156484188,156483953,1,Timothymak,Credit crunch,
2007-09-08T14:10:53+00:00,156483953,156483798,1,Timothymak,Credit crunch,
2007-09-08T14:09:41+00:00,156483798,156483727,1,Timothymak,Credit crunch,
2007-09-08T14:09:11+00:00,156483727,156132159,1,Timothymak,Credit crunch,
2007-09-07T13:45:37+00:00,156270495,156269898,1,Timothymak,Criticism of fractional-reserve banking,
2007-09-07T13:41:39+00:00,156269898,156269090,1,Timothymak,Criticism of fractional-reserve banking,/* Policy Implications */
2007-09-07T13:36:28+00:00,156269090,156208570,1,Timothymak,Criticism of fractional-reserve banking,/* Policy Implications */
2007-09-07T13:30:54+00:00,156268260,156268115,1,Timothymak,Subprime mortgage crisis,/* See also */
2007-09-07T13:30:02+00:00,156268115,156267908,1,Timothymak,Subprime mortgage crisis,
2007-09-07T13:28:45+00:00,156267908,156206223,1,Timothymak,Subprime mortgage crisis,
2007-09-01T09:51:46+00:00,154989320,154989236,1,Timothymak,Criticism of fractional-reserve banking,/* Policy Implications */
2007-09-01T09:50:54+00:00,154989236,154988482,1,Timothymak,Criticism of fractional-reserve banking,/* Policy Implications */
2007-09-01T09:43:22+00:00,154988482,154988424,1,Timothymak,Criticism of fractional-reserve banking,/* Policy Implications */
2007-09-01T09:42:39+00:00,154988424,154987878,1,Timothymak,Criticism of fractional-reserve banking,/* Policy Implications */
2007-09-01T09:37:04+00:00,154987878,154987641,1,Timothymak,Criticism of fractional-reserve banking,/* Policy Implications */
2007-09-01T09:34:54+00:00,154987641,154987518,1,Timothymak,Criticism of fractional-reserve banking,/* Policy Implications */
2007-09-01T09:33:42+00:00,154987518,154987345,1,Timothymak,Criticism of fractional-reserve banking,/* Policy Implications */
2007-09-01T09:32:03+00:00,154987345,154987264,1,Timothymak,Criticism of fractional-reserve banking,/* Policy Implications */
2007-09-01T09:31:12+00:00,154987264,154987163,1,Timothymak,Criticism of fractional-reserve banking,/* Policy Implications */
2007-09-01T09:30:06+00:00,154987163,154987034,1,Timothymak,Criticism of fractional-reserve banking,/* Policy Implications */
2007-09-01T09:28:37+00:00,154987034,154985414,1,Timothymak,Criticism of fractional-reserve banking,/* Policy Implications */
2007-09-01T09:13:50+00:00,154985414,154937217,1,Timothymak,Criticism of fractional-reserve banking,
2007-09-01T02:46:43+00:00,154938776,154938545,1,Timothymak,Libertarianism,/* See also */
2007-09-01T02:45:12+00:00,154938545,154938458,1,Timothymak,Libertarianism,/* Libertarian policy */
2007-09-01T02:44:38+00:00,154938458,153453820,1,Timothymak,Libertarianism,/* Libertarian policy */
2007-09-01T02:36:00+00:00,154937217,154936248,1,Timothymak,Criticism of fractional-reserve banking,/* Policy Implications */
2007-09-01T02:29:22+00:00,154936248,154935703,1,Timothymak,Criticism of fractional-reserve banking,/* Economic and political opposition */
2007-09-01T02:25:22+00:00,154935703,154604511,1,Timothymak,Criticism of fractional-reserve banking,
2007-08-29T12:54:23+00:00,154376973,154376158,1,Timothymak,Criticism of fractional-reserve banking,/* Policy Implications */
2007-08-29T12:49:06+00:00,154376158,154374645,1,Timothymak,Criticism of fractional-reserve banking,/* Policy Implications */
2007-08-29T12:36:55+00:00,154374645,154374386,1,Timothymak,Criticism of fractional-reserve banking,/* Economic and political opposition */
2007-08-29T12:34:58+00:00,154374386,154326241,1,Timothymak,Criticism of fractional-reserve banking,/* Economic and political opposition */
2007-08-28T13:44:13+00:00,154168963,154168296,1,Timothymak,Criticism of fractional-reserve banking,/* Policy Implications */
2007-08-28T13:39:50+00:00,154168296,154131399,1,Timothymak,Criticism of fractional-reserve banking,/* Policy Implications */
2007-08-28T08:42:27+00:00,154131399,154112677,1,Timothymak,Criticism of fractional-reserve banking,/* Policy Implications */
2007-08-28T05:46:52+00:00,154112677,154111844,1,Timothymak,Criticism of fractional-reserve banking,/* Economic and political opposition */
2007-08-28T05:39:54+00:00,154111844,153936684,1,Timothymak,Criticism of fractional-reserve banking,/* Policy Implications */
2007-08-27T11:58:25+00:00,153936684,153936483,1,Timothymak,Criticism of fractional-reserve banking,/* Economic and political opposition */
2007-08-27T11:56:43+00:00,153936483,153935147,1,Timothymak,Criticism of fractional-reserve banking,/* Economic and political opposition */
2007-08-27T11:46:15+00:00,153935147,153935063,1,Timothymak,Criticism of fractional-reserve banking,/* Policy Implications */
2007-08-27T11:45:44+00:00,153935063,153934928,1,Timothymak,Criticism of fractional-reserve banking,/* Policy Implications */
2007-08-27T11:44:37+00:00,153934928,153934819,1,Timothymak,Criticism of fractional-reserve banking,/* Policy Implications */
2007-08-27T11:43:56+00:00,153934819,153934723,1,Timothymak,Criticism of fractional-reserve banking,/* Policy Implications */
2007-08-27T11:43:20+00:00,153934723,153934032,1,Timothymak,Criticism of fractional-reserve banking,/* Policy Implications */
2007-08-27T11:38:20+00:00,153934032,153933676,1,Timothymak,Criticism of fractional-reserve banking,/* Policy Implications */
2007-08-27T11:35:31+00:00,153933676,153933582,1,Timothymak,Criticism of fractional-reserve banking,/* Economic and political opposition */
2007-08-27T11:34:49+00:00,153933582,153932853,1,Timothymak,Criticism of fractional-reserve banking,/* Economic and political opposition */
2007-08-27T11:29:18+00:00,153932853,153932728,1,Timothymak,Criticism of fractional-reserve banking,/* Economic and political opposition */
2007-08-27T11:28:21+00:00,153932728,153932623,1,Timothymak,Criticism of fractional-reserve banking,/* Economic and political opposition */
2007-08-27T11:27:28+00:00,153932623,153932499,1,Timothymak,Criticism of fractional-reserve banking,/* Economic and political opposition */
2007-08-27T11:26:41+00:00,153932499,153932232,1,Timothymak,Criticism of fractional-reserve banking,/* Economic and political opposition */
2007-08-27T11:24:35+00:00,153932232,153932093,1,Timothymak,Criticism of fractional-reserve banking,/* Economic and political opposition */
2007-08-27T11:23:41+00:00,153932093,153931838,1,Timothymak,Criticism of fractional-reserve banking,/* Economic and political opposition */
2007-08-27T11:21:41+00:00,153931838,153931494,1,Timothymak,Criticism of fractional-reserve banking,/* Economic and political opposition */
2007-08-27T11:18:59+00:00,153931494,153931337,1,Timothymak,Criticism of fractional-reserve banking,/* Economic and political opposition */
2007-08-27T11:17:40+00:00,153931337,153894937,1,Timothymak,Criticism of fractional-reserve banking,/* Economic and political opposition */
2007-08-26T10:41:33+00:00,153719130,153718948,1,Timothymak,Criticism of fractional-reserve banking,/* Policy Implications */
2007-08-26T10:39:55+00:00,153718948,153718529,1,Timothymak,Criticism of fractional-reserve banking,/* Policy Implications */
2007-08-26T10:35:39+00:00,153718529,153718381,1,Timothymak,Criticism of fractional-reserve banking,/* Policy Implications */
2007-08-26T10:34:17+00:00,153718381,153718068,1,Timothymak,Criticism of fractional-reserve banking,/* Policy Implications */
2007-08-26T10:31:07+00:00,153718068,153717666,1,Timothymak,Criticism of fractional-reserve banking,/* Policy Implications */
2007-08-26T10:27:16+00:00,153717666,153717480,1,Timothymak,Criticism of fractional-reserve banking,/* Policy Implications */
2007-08-26T10:25:45+00:00,153717480,153717144,1,Timothymak,Criticism of fractional-reserve banking,/* Policy Implications */
2007-08-26T10:22:33+00:00,153717144,153714196,1,Timothymak,Criticism of fractional-reserve banking,/* Policy Implications */
2007-08-26T09:52:05+00:00,153714196,153713848,1,Timothymak,Criticism of fractional-reserve banking,/* Policy Implications */
2007-08-26T09:48:39+00:00,153713848,153712576,1,Timothymak,Criticism of fractional-reserve banking,/* Policy Implications */
2007-08-26T09:35:31+00:00,153712576,153711830,1,Timothymak,Criticism of fractional-reserve banking,/* Policy Implications */
2007-08-26T09:27:55+00:00,153711830,153711611,1,Timothymak,Criticism of fractional-reserve banking,/* Policy Implications */
2007-08-26T09:25:23+00:00,153711611,153710725,1,Timothymak,Criticism of fractional-reserve banking,/* Policy Implications */
2007-08-26T09:14:52+00:00,153710725,153710635,1,Timothymak,Criticism of fractional-reserve banking,/* Policy Implications */
2007-08-26T09:13:48+00:00,153710635,153710113,1,Timothymak,Criticism of fractional-reserve banking,/* Policy Implications */
2007-08-26T09:08:13+00:00,153710113,153709913,1,Timothymak,Criticism of fractional-reserve banking,/* Policy Implications */
2007-08-26T09:06:02+00:00,153709913,153709799,1,Timothymak,Criticism of fractional-reserve banking,/* Policy Implications */
2007-08-26T09:04:56+00:00,153709799,153709698,1,Timothymak,Criticism of fractional-reserve banking,/* Policy Implications */
2007-08-26T09:03:52+00:00,153709698,153708925,1,Timothymak,Criticism of fractional-reserve banking,/* Policy Implications */
2007-08-26T08:56:13+00:00,153708925,153696356,1,Timothymak,Criticism of fractional-reserve banking,/* Policy Implications */
2007-08-26T06:44:42+00:00,153696356,153695839,1,Timothymak,Criticism of fractional-reserve banking,/* Policy Implications */
2007-08-26T06:39:44+00:00,153695839,153695759,1,Timothymak,Criticism of fractional-reserve banking,/* Policy Implications */
2007-08-26T06:38:45+00:00,153695759,153695488,1,Timothymak,Criticism of fractional-reserve banking,/* Policy Implications */
2007-08-26T06:35:56+00:00,153695488,153695187,1,Timothymak,Criticism of fractional-reserve banking,/* Policy Implications */
2007-08-26T06:33:08+00:00,153695187,153694964,1,Timothymak,Criticism of fractional-reserve banking,/* Policy Implications */
2007-08-26T06:31:14+00:00,153694964,153694835,1,Timothymak,Criticism of fractional-reserve banking,/* Policy Implications */
2007-08-26T06:29:58+00:00,153694835,153694469,1,Timothymak,Criticism of fractional-reserve banking,/* Policy Implications */
2007-08-26T06:26:34+00:00,153694469,153694415,1,Timothymak,Criticism of fractional-reserve banking,/* Policy Implications */
2007-08-26T06:25:59+00:00,153694415,153694132,1,Timothymak,Criticism of fractional-reserve banking,/* Policy Implications */
2007-08-26T06:22:52+00:00,153694132,153694005,1,Timothymak,Criticism of fractional-reserve banking,/* Policy Implications */
2007-08-26T06:21:23+00:00,153694005,153693614,1,Timothymak,Criticism of fractional-reserve banking,/* Policy Implications */
2007-08-26T06:17:13+00:00,153693614,153693561,1,Timothymak,Criticism of fractional-reserve banking,/* Policy Implications */
2007-08-26T06:16:38+00:00,153693561,153693289,1,Timothymak,Criticism of fractional-reserve banking,/* Policy Implications */
2007-08-26T06:14:09+00:00,153693289,153693151,1,Timothymak,Criticism of fractional-reserve banking,/* Policy Implications */
2007-08-26T06:12:52+00:00,153693151,153693028,1,Timothymak,Criticism of fractional-reserve banking,/* Policy Implications */
2007-08-26T06:11:36+00:00,153693028,153692631,1,Timothymak,Criticism of fractional-reserve banking,/* Policy Implications */
2007-08-26T06:08:14+00:00,153692631,153692355,1,Timothymak,Criticism of fractional-reserve banking,/* Policy Implications */
2007-08-26T06:06:06+00:00,153692355,153692273,1,Timothymak,Criticism of fractional-reserve banking,/* Policy Implications */
2007-08-26T06:05:19+00:00,153692273,153691887,1,Timothymak,Criticism of fractional-reserve banking,/* Policy Implications */
2007-08-26T06:01:42+00:00,153691887,153691791,1,Timothymak,Criticism of fractional-reserve banking,/* Economic and political opposition */
2007-08-26T06:00:33+00:00,153691791,153691443,1,Timothymak,Criticism of fractional-reserve banking,/* Economic and political opposition */
2007-08-26T05:57:24+00:00,153691443,153675367,1,Timothymak,Criticism of fractional-reserve banking,/* Economic and political opposition */
2007-08-26T03:45:01+00:00,153675367,153675177,1,Timothymak,Criticism of fractional-reserve banking,/* Economic and political opposition */
2007-08-26T03:43:30+00:00,153675177,153674527,1,Timothymak,Criticism of fractional-reserve banking,
2007-08-26T03:38:37+00:00,153674527,153674017,1,Timothymak,Criticism of fractional-reserve banking,/* Policy Implications */
2007-08-26T03:34:44+00:00,153674017,153673904,1,Timothymak,Criticism of fractional-reserve banking,
2007-08-26T03:33:49+00:00,153673904,153673441,1,Timothymak,Criticism of fractional-reserve banking,
2007-08-26T03:30:33+00:00,153673441,153559711,1,Timothymak,Criticism of fractional-reserve banking,/* Economic and political opposition */
2007-08-25T14:55:18+00:00,153559711,153559210,1,Timothymak,Criticism of fractional-reserve banking,/* Policy Implications */
2007-08-25T14:51:37+00:00,153559210,153559088,1,Timothymak,Criticism of fractional-reserve banking,
2007-08-25T14:50:48+00:00,153559088,153544362,1,Timothymak,Criticism of fractional-reserve banking,
2007-08-25T13:00:28+00:00,153544362,153543364,1,Timothymak,Criticism of fractional-reserve banking,
2007-08-25T12:51:38+00:00,153543364,153540880,1,Timothymak,Criticism of fractional-reserve banking,
2007-08-25T12:02:47+00:00,153537685,153537508,1,Timothymak,Criticism of fractional-reserve banking,/* Policy Implications */
2007-08-25T12:01:19+00:00,153537508,153533171,1,Timothymak,Criticism of fractional-reserve banking,/* Policy Implications */
2007-08-25T11:18:06+00:00,153533171,153532866,1,Timothymak,Criticism of fractional-reserve banking,/* Economic and political opposition */
2007-08-25T11:14:55+00:00,153532866,153524896,1,Timothymak,Criticism of fractional-reserve banking,
2007-08-25T09:48:42+00:00,153524896,153524794,1,Timothymak,Criticism of fractional-reserve banking,/* Policy Implications */
2007-08-25T09:47:21+00:00,153524794,153524420,1,Timothymak,Criticism of fractional-reserve banking,/* Policy Implications */
2007-08-25T09:43:06+00:00,153524420,153523963,1,Timothymak,Criticism of fractional-reserve banking,/* Policy Implications */
2007-08-25T09:38:14+00:00,153523963,153523760,1,Timothymak,Criticism of fractional-reserve banking,/* Policy Implications */
2007-08-25T09:35:36+00:00,153523760,153523339,1,Timothymak,Criticism of fractional-reserve banking,
2007-08-25T09:30:26+00:00,153523339,153522989,1,Timothymak,Criticism of fractional-reserve banking,
2007-08-25T09:25:56+00:00,153522989,153312579,1,Timothymak,Criticism of fractional-reserve banking,
2010-10-21T12:58:00+00:00,392020005,392019928,1,TitleLawyersGoneWild!,Talk:2010 United States foreclosure crisis,/* Merge Foreclosuregate */
2010-10-21T12:57:26+00:00,392019928,392019841,1,TitleLawyersGoneWild!,Talk:2010 United States foreclosure crisis,/* Merge Foreclosuregate */
2010-10-21T12:56:40+00:00,392019841,391723118,1,TitleLawyersGoneWild!,Talk:2010 United States foreclosure crisis,/* Interesting individual cases */
2010-10-21T11:32:43+00:00,392010417,392010363,1,TitleLawyersGoneWild!,User talk:TitleLawyersGoneWild!,/* Foreclosure-Gate and Foreclosuregate */
2010-10-21T11:32:03+00:00,392010363,392010300,1,TitleLawyersGoneWild!,User talk:TitleLawyersGoneWild!,
2010-10-21T11:31:15+00:00,392010300,392007461,1,TitleLawyersGoneWild!,User talk:TitleLawyersGoneWild!,
2010-08-06T11:38:53+00:00,377463611,377454703,1,UnderWaterMortgageSlaves,Criticism of fractional-reserve banking,/* See also */
2010-08-06T10:24:19+00:00,377456271,0,1,UnderWaterMortgageSlaves,User:UnderWaterMortgageSlaves,[[WP:AES|←]]Created page with 'are slowly being drowned by banksters and govt.  Ha ha ha!'
2010-08-06T23:55:47+00:00,377565704,377480365,1,VapidShystersHaveTakenOverPolicy,Money as Debt,Added relevant See Also not already appearing in article
2010-08-06T23:54:54+00:00,377565597,0,1,VapidShystersHaveTakenOverPolicy,User:VapidShystersHaveTakenOverPolicy,"[[WP:AES|←]]Created page with 'I am confirmed sockppt of Karmaisking, not a suspected sockppt.  Thank you.'"
2013-03-03T01:24:59+00:00,541819033,541394482,1,VMav92,Austrian school of economics,/* Inflation */
2013-03-03T01:24:09+00:00,541818919,541741003,1,VMav92,Talk:Austrian school of economics,/* The home stretch */
2013-03-02T15:04:13+00:00,541732700,541728410,1,VMav92,Talk:Austrian school of economics,/* The home stretch */
2013-03-02T00:18:12+00:00,541614329,541613955,1,VMav92,Talk:Austrian school of economics,/* The home stretch */
2013-03-01T13:35:01+00:00,541518326,541399206,1,VMav92,Talk:Austrian school of economics,/* The home stretch */
2013-03-01T06:32:31+00:00,541445048,541407665,1,VMav92,User talk:VMav92,/* Austrian School */
2013-03-01T06:32:29+00:00,541445040,540687179,1,VMav92,User talk:SPECIFICO,/* Austrians and Krugman */
2013-03-01T03:11:06+00:00,541407665,541406926,1,VMav92,User talk:VMav92,/* Austrian School */
2013-03-01T02:49:40+00:00,541401106,540291273,1,VMav92,User talk:Byelf2007,/* A barnstar for you! */ new WikiLove message
2013-03-01T02:40:41+00:00,541399078,541398734,1,VMav92,Talk:Austrian school of economics,/* The home stretch */
2013-03-01T02:37:21+00:00,541398734,541380356,1,VMav92,Talk:Austrian school of economics,/* The home stretch */
2013-02-28T15:31:39+00:00,541263836,541261132,1,VMav92,Talk:Austrian school of economics,/* The home stretch */
2013-02-28T15:19:53+00:00,541261132,541258556,1,VMav92,Talk:Austrian school of economics,/* The home stretch */
2009-03-18T00:07:28+00:00,277990815,277990591,1,WatchinTheTideRollAway,Systemic risk,/* Discussion */
2009-03-18T00:06:30+00:00,277990591,277990094,1,WatchinTheTideRollAway,Systemic risk,/* Discussion */
2009-03-18T00:04:04+00:00,277990094,277989958,1,WatchinTheTideRollAway,Systemic risk,Spacing only.
2009-03-18T00:03:22+00:00,277989958,277989827,1,WatchinTheTideRollAway,Systemic risk,/* How to Measure Systemic Risk */
2009-03-18T00:02:48+00:00,277989827,277989459,1,WatchinTheTideRollAway,Systemic risk,/* Measurement of Systemic Risk */  Slight re-ordering of existing duplicated information.
2009-03-18T00:01:09+00:00,277989459,277193858,1,WatchinTheTideRollAway,Systemic risk,/* Discussion */  Heading correction
2009-03-17T22:58:12+00:00,277976802,277865745,1,WatchinTheTideRollAway,Austrian school of economics,"This will be a test for the Zealot.  I've just removed a full stop.  Clear typo.  Can he stop himself from killing me, just for this edit? Or can he be reasonable and leave this alone? What a test!"
2009-03-17T12:34:16+00:00,277850166,277848682,1,WatchinTheTideRollAway,Austrian school of economics,I love it!  The Zealot's back!  Check this out Gregalton.  He bans Michael Suede thinking it's me (it wasn't).  Now this.  Madness begets madness.  Zealotry begets Zealotry.  HA HA HA!
2009-03-17T06:31:38+00:00,277813607,277808816,1,WatchinTheTideRollAway,Austrian school of economics,How petty are you going to be?  These are TINY amendments - one is a f*cking typo.  Come on now...
2009-03-17T05:57:54+00:00,277810302,274490804,1,WatchinTheTideRollAway,User talk:Gregalton,
2009-03-17T05:36:13+00:00,277808064,277802577,1,WatchinTheTideRollAway,John Maynard Keynes,Clean up grammar
2009-03-17T05:30:48+00:00,277807514,277807331,1,WatchinTheTideRollAway,Austrian school of economics,/* History */
2009-03-17T05:29:35+00:00,277807331,277807266,1,WatchinTheTideRollAway,Austrian school of economics,/* 1920– */
2009-03-17T05:28:53+00:00,277807266,277804654,1,WatchinTheTideRollAway,Austrian school of economics,/* History */  Contentious and unreferenced statements removed.  20th century did not have a revival of laissez faire.  Central banking actually proliferated throughout this period.
2009-03-17T05:05:13+00:00,277804654,277804489,1,WatchinTheTideRollAway,Austrian school of economics,/* 1920– */  Added appropriate references and additional information to this small section.
2009-03-17T05:03:41+00:00,277804489,277804424,1,WatchinTheTideRollAway,Austrian school of economics,Full stops were excessive.
2009-03-17T05:03:04+00:00,277804424,277125947,1,WatchinTheTideRollAway,Austrian school of economics,No cite needed  -  it's clear from the body of the article.
2009-03-17T04:47:06+00:00,277802577,277801849,1,WatchinTheTideRollAway,John Maynard Keynes,/* Criticism */
2009-03-17T04:40:41+00:00,277801849,277794081,1,WatchinTheTideRollAway,John Maynard Keynes,"Uncited, NPOV, unreferenced allegations regarding the cause and cure of depressions.  Delusional statements have been removed."
2009-03-17T01:37:40+00:00,277776564,277776438,1,WatchinTheTideRollAway,User talk:Vision Thing/Archive4,
2009-03-17T01:36:58+00:00,277776438,269751588,1,WatchinTheTideRollAway,User talk:Vision Thing/Archive4,
2009-03-12T11:06:54+00:00,276721080,276721017,1,WatchinTheTideRollAway,Talk:Austrian business cycle theory,Revert edit of banned user.  Vandalism.
2009-03-12T11:06:14+00:00,276721017,273910945,1,WatchinTheTideRollAway,Talk:Austrian business cycle theory,/* Archiving */
2009-03-12T08:16:05+00:00,276704725,258093107,1,WatchinTheTideRollAway,Talk:Systemic risk,"/* Alchemy of Finance: Poorly expressed, few citations, to cleaner, more citations */  Sorry, terminology was a little sloppy.  The perfectionist in me....."
2009-03-06T01:26:00+00:00,275300086,275300037,1,WatchinTheTideRollAway,User talk:DickClarkMises,/* Refs in Meltdown */
2009-03-06T01:25:40+00:00,275300037,275299897,1,WatchinTheTideRollAway,User talk:DickClarkMises,/* References */
2009-03-06T01:24:52+00:00,275299897,275094724,1,WatchinTheTideRollAway,User talk:DickClarkMises,/* Replaceable fair use Image:Heather_higgins.jpg */
2008-09-10T23:39:09+00:00,237603843,237146308,1,We'reFreakingDoomed!,Austrian school of economics,Gregalton specifically requested that Austrian interpretations stay on this page - Austrians please contribute summation of theories here (including on inflation)
2008-09-10T03:19:24+00:00,237425950,237424040,1,We'reFreakingDoomed!,User talk:Gregalton,"Sorry, even if this is deleted, I can't help being a pedant."
2008-09-10T03:05:04+00:00,237424040,237423491,1,We'reFreakingDoomed!,User talk:Gregalton,"This is probably the last ""contribution"" on this page.  I know when the end is near.  Good luck.  We'll all need it."
2008-09-10T03:00:46+00:00,237423491,237361309,1,We'reFreakingDoomed!,User talk:Gregalton,/* Re: Federal Reserve */
2010-05-30T03:04:07+00:00,364959444,364481742,1,WeedOutWanderingBanksters,Moral hazard,Reasonable edits.  I will adopt them as a new WP editor.
2020-03-06T07:15:43+00:00,944187796,942891516,1,Weinstein'sWeiner,Fractional-reserve banking,Minor edit to update for current events and maintain accuracy and neutrality of article.
2020-02-22T12:11:08+00:00,942073087,942073010,1,Weinstein'sWeiner,List of monetary reformers,/* Organisations */
2020-02-22T12:10:11+00:00,942073010,942072878,1,Weinstein'sWeiner,List of monetary reformers,/* Organisations */
2020-02-22T12:08:42+00:00,942072878,942072807,1,Weinstein'sWeiner,List of monetary reformers,
2020-02-22T12:07:58+00:00,942072807,934223999,1,Weinstein'sWeiner,List of monetary reformers,/* Austrian School (gold standard or full-reserve banking supporters) */
2020-02-19T12:38:22+00:00,941579590,941570466,1,Weinstein'sWeiner,User talk:Weinstein'sWeirdWeiner,
2020-02-19T10:55:57+00:00,941570667,939729456,1,Weinstein'sWeiner,Biological agent,/* See also */
2020-02-19T10:54:04+00:00,941570466,0,1,Weinstein'sWeiner,User talk:Weinstein'sWeirdWeiner,[[WP:AES|←]]Created page with 'The CamelCase name also refers to Anthony Weiner but I don't expect robotic humorless admins to understand (and whose tasks should be taken over by low level AI)...'
2020-02-12T10:29:15+00:00,940404905,940081661,1,Weinstein'sWeirdWeiner,Biological warfare,/* See also */
2020-02-12T09:55:05+00:00,940401893,0,1,Weinstein'sWeirdWeiner,User:Weinstein'sWeirdWeiner,[[WP:AES|←]]Created page with 'Hi'
2020-02-12T09:54:48+00:00,940401866,934237062,1,Weinstein'sWeirdWeiner,Monetary reform,/* Alternative money systems */ Reorder
2013-03-05T02:27:46+00:00,542140707,542140669,1,WeOweItToOurselves,Talk:Austrian school of economics,/* Irrelevant and bizarre Milton F Quote */
2013-03-05T02:27:24+00:00,542140669,542113395,1,WeOweItToOurselves,Talk:Austrian school of economics,/* Duplicate Photos */
2013-03-05T02:24:12+00:00,542140240,542112602,1,WeOweItToOurselves,Austrian school of economics,/* Empirical objections */  Not an empirical criticism.  At all.  See talk.
2008-09-14T13:02:52+00:00,238352764,238343328,1,WhyWe'reFreakingDoomed,User talk:John Quiggin,/* Cencorship? */
2008-09-14T02:01:45+00:00,238270789,238270183,1,WhyWe'reFreakingDoomed,Credit crunch,
2008-09-14T01:57:28+00:00,238270183,238069202,1,WhyWe'reFreakingDoomed,Credit crunch,
2008-09-14T01:47:41+00:00,238268787,238268499,1,WhyWe'reFreakingDoomed,User talk:Gregalton,/* Think Carefully From Here On. Please */  Typo.  I have to stop.
2008-09-14T01:45:49+00:00,238268499,238268295,1,WhyWe'reFreakingDoomed,User talk:Gregalton,/* Think Carefully From Here On. Please */  This has got to be it.
2008-09-14T01:44:19+00:00,238268295,238268202,1,WhyWe'reFreakingDoomed,User talk:Gregalton,/* Think Carefully From Here On. Please */
2008-09-14T01:43:36+00:00,238268202,238144905,1,WhyWe'reFreakingDoomed,User talk:Gregalton,/* Think Carefully From Here On. Please */
2010-11-30T11:41:28+00:00,399705841,0,1,WikiLeaksWillKillTheBanksters2011,User:WikiLeaksWillKillTheBanksters2011,[[WP:AES|←]]Created page with '[http://www.marketoracle.co.uk/Article24643.html  Uh oh...]'
2010-11-30T11:37:07+00:00,399705389,399705231,1,WikiLeaksWillKillTheBanksters2011,Murray Rothbard,
2010-11-30T11:35:44+00:00,399705231,397065527,1,WikiLeaksWillKillTheBanksters2011,Murray Rothbard,hardly 'popularized' - more like 'developed'. Ron Paul could be considered a popularizer - MR not quite.  He was a system builder and intellectual.
2008-08-27T23:26:00+00:00,234673587,233954863,1,X-11111,User:X-11111,[[WP:AES|←]] Blanked the page
2008-08-18T23:18:05+00:00,232789202,232779046,1,X-11111,Talk:Inflation,"/* Expert needed */ Misessus, Gregalton revealed that you are are a sockpuppet"
2008-08-18T22:19:32+00:00,232779046,232778865,1,X-11111,Talk:Inflation,/* Expert needed */
2008-08-18T22:17:26+00:00,232778630,232774973,1,X-11111,Talk:Inflation,/* Expert needed */ Let´s take the best from all the views.
2008-08-18T21:16:28+00:00,232767913,232766888,1,X-11111,Talk:Inflation,/* Expert needed */ has this article been downgraded?
2008-08-18T21:05:15+00:00,232765856,232745244,1,X-11111,Talk:Inflation,/* Expert needed */ Find out who flagged for an expert.
2008-08-18T20:57:23+00:00,232764452,232763762,1,X-11111,Inflation,/* Original definition */ Citation needed
2008-08-18T20:53:52+00:00,232763762,232633426,1,X-11111,Inflation,
2020-02-27T08:28:43+00:00,942857406,942857040,1,YouCan'tPrintYourWayOutOfAPandemic,Fractional-reserve banking,/* Criticisms of textbook descriptions of the monetary system */
2020-02-27T08:22:47+00:00,942857040,942856967,1,YouCan'tPrintYourWayOutOfAPandemic,Fractional-reserve banking,
2020-02-27T08:21:52+00:00,942856967,942856802,1,YouCan'tPrintYourWayOutOfAPandemic,Fractional-reserve banking,
2020-02-27T08:19:42+00:00,942856802,942856721,1,YouCan'tPrintYourWayOutOfAPandemic,Fractional-reserve banking,
2020-02-27T08:18:41+00:00,942856721,942856581,1,YouCan'tPrintYourWayOutOfAPandemic,Fractional-reserve banking,
2020-02-27T08:16:51+00:00,942856581,940614864,1,YouCan'tPrintYourWayOutOfAPandemic,Fractional-reserve banking,
2020-02-24T08:59:49+00:00,942379130,942379074,1,YouCan'tPrintYourWayOutOfAPandemic,Monetary reform,
2020-02-24T08:59:11+00:00,942379074,942379034,1,YouCan'tPrintYourWayOutOfAPandemic,Monetary reform,
2020-02-24T08:58:49+00:00,942379034,942378994,1,YouCan'tPrintYourWayOutOfAPandemic,Monetary reform,
2020-02-24T08:58:14+00:00,942378994,942378961,1,YouCan'tPrintYourWayOutOfAPandemic,Monetary reform,
2020-02-24T08:57:57+00:00,942378961,940445036,1,YouCan'tPrintYourWayOutOfAPandemic,Monetary reform,
2020-02-24T04:33:46+00:00,942353941,942353866,1,YouCan'tPrintYourWayOutOfAPandemic,User:YouCan'tPrintYourWayOutOfAPandemic,
2020-02-24T04:33:13+00:00,942353866,0,1,YouCan'tPrintYourWayOutOfAPandemic,User:YouCan'tPrintYourWayOutOfAPandemic,"[[WP:AES|←]]Created page with 'Hammer meet screw.  No, it's not nail.'"
2010-08-08T03:25:32+00:00,377757256,0,1,YouthBittenByBankster-Vampire,User:YouthBittenByBankster-Vampire,[[WP:AES|←]]Created page with 'This account is a CONFIRMED sockppt of Karmaisking.  CONFIRMED.'
2010-10-20T12:31:15+00:00,391826414,391137118,0,Behemoth,2006 Montenegrin independence referendum,/* Results */
2020-12-15T21:03:34+00:00,994462495,994461411,0,2600:6C4A:417F:CC86:CDD9:943A:C45F:F117,2007–2008 financial crisis,
2020-12-28T13:05:13+00:00,996756456,992811004,0,Rcb1,1896,/* January&ndash;June */ López Jaena
2015-03-12T12:26:29+00:00,651036756,651036749,0,ClueBot NG,2007–2008 financial crisis,"Reverting possible vandalism by [[Special:Contributions/208.108.212.66|208.108.212.66]] to version by 70.209.49.221. False positive? [[User:ClueBot NG/FalsePositives|Report it]]. Thanks, [[User:ClueBot NG|ClueBot NG]]. (2158319) (Bot)"
2014-08-22T23:08:12+00:00,622400308,622307371,0,Penbat,2007–2008 financial crisis,/* See also */
2016-04-25T07:53:15+00:00,717022655,715532017,0,98.88.130.44,2007–2008 financial crisis,Remove old template
2020-05-20T03:26:40+00:00,957697898,957068196,0,InternetArchiveBot,2006 Montenegrin independence referendum,Rescuing 0 sources and tagging 2 as dead.) #IABot (v2.0.1
2007-11-03T02:37:50+00:00,168868497,167962946,0,BotMultichill,1896,robot  Adding: [[pi:१८९६]]
2015-10-29T04:00:01+00:00,688023389,685211173,0,The Vintage Feminist,Affirmative action,/* Further reading */ Added journal article.
2016-08-11T17:36:41+00:00,734029065,733931022,0,StefenTower,Affirmative action in the United States,cleanup articles linked from [[Kentucky]] for [[WP:KY|WikiProject Kentucky]] using [[Project:AWB|AWB]]
2008-01-26T00:22:08+00:00,186927187,186824492,0,Malik Shabazz,Affirmative action,[[WP:UNDO|Undid]] revision 186824492 by [[Special:Contributions/69.204.1.155|69.204.1.155]] ([[User talk:69.204.1.155|talk]]) rv inappropriate commentary
2014-01-15T19:16:15+00:00,590858418,590500957,0,176.254.219.142,Affirmative action in the United States,/* Ford Administration */
2008-12-01T00:02:57+00:00,255095736,255092600,0,TheRedPenOfDoom,Affirmative action,[[WP:UNDO|Undid]] revision 255092600 by [[Special:Contributions/68.105.133.118|68.105.133.118]] ([[User talk:68.105.133.118|talk]]) return req for cites
2016-12-29T05:23:47+00:00,757170031,756178280,0,Oxf0,Affirmative action,/* Further reading */ added url to existing further reading
2015-04-22T18:20:52+00:00,658605594,658598199,0,Gilliam,Affirmative action,Reverted edits by [[Special:Contribs/205.235.52.30|205.235.52.30]] ([[User talk:205.235.52.30|talk]]) to last version by Pajfarmor
2011-04-20T21:05:23+00:00,425065432,424966902,0,Atrix20,Affirmative action,this stuff is taken out of context and patently false: there is affirmative action for Arabs in Israel.
2007-04-19T15:56:14+00:00,124109508,124109180,0,Jvbishop,Affirmative action,Reverted 1 edit by [[Special:Contributions/Ltmav3x|Ltmav3x]] identified as [[WP:VAND|vandalism]] to last revision by [[User:66.108.82.29|66.108.82.29]]. using [[WP:TWINKLE|TW]]
2015-03-09T12:35:09+00:00,650599622,650201142,0,CommonsDelinker,Affirmative action,"Removing ""Dahrendorf.jpg"", it has been deleted from Commons by [[commons:User:Natuur12|Natuur12]] because: Missing [[:c:COM:EI|essential information]] such as [[:c:COM:L|license]], [[:c:COM:PERMISSION|permission]] or source since 1 March 2015 -  Using [[:"
2007-10-10T01:53:05+00:00,163472235,163442827,0,Lindsay123,Affirmative action in the United States,I revised the section on Michigan's proposal 2.  I think it's more accurate.  I also noted that the legality of Proposal 2 is the subject of litigation.
2017-11-02T00:06:23+00:00,808291567,807140787,0,Teratornis,Affirmative action in the United States,/* Legal history */ add wikilink on: [[DeFunis v. Odegaard]]
2007-11-01T21:27:52+00:00,168590707,168192148,0,71.191.116.9,Affirmative action in the United States,/* Implementation in universities */
2016-11-25T09:06:32+00:00,751384273,751384220,0,WikiTryHardDieHard,Affirmative action in the United States,/* Connecticut */ little cleanup
2020-04-24T20:47:26+00:00,952933322,951779744,0,108.41.188.18,Affirmative action in the United States,
2009-03-27T18:45:36+00:00,280057567,280056680,0,TheWorldHasABrainNow,Affirmative action in the United States,/* Legal history */ fixed link in carter e.o.
2018-05-17T18:56:56+00:00,841739695,841729052,0,Davey2010,Affirmative action in the United States,Reverted edits by [[Special:Contribs/Clong6496|Clong6496]] ([[User talk:Clong6496|talk]]) to last version by Bender235
2015-06-14T23:41:57+00:00,666973238,666307554,0,Jonesey95,Alcor Life Extension Foundation,Fixing [[Category:Pages with citations using unnamed parameters|unnamed parameter error]] in citation.
2012-06-11T23:13:50+00:00,497139814,496836295,0,Kingstowngalway,Aleksandr Solzhenitsyn,/* Published works and speeches */
2015-11-27T13:26:34+00:00,692672541,692510750,0,Xover,Anal sex,"fix broken journals.uchicago.edu link, complete bibliographic details, format, fix syntax error"
2008-11-18T04:50:02+00:00,252511418,252511392,0,Good Olfactory,Alfredo Astiz,"Quick-adding category ""Prisoners sentenced to life imprisonment by France"" (using [[WP:HOTCAT|HotCat]])"
2017-11-02T21:17:13+00:00,808435949,807726449,0,Goethean,American Monetary Institute,wkfy
2013-09-17T13:08:03+00:00,573318114,565850031,0,14.199.84.143,Alcor Life Extension Foundation,Statistics update - add associate members statistics
2020-01-25T00:49:48+00:00,937436148,937433726,0,AnomieBOT,American Monetary Institute,Dating maintenance tags: {{Improverefs}}
2011-03-19T23:49:23+00:00,419708882,419017394,0,Luckas-bot,Alfredo Astiz,r2.7.1) (robot Adding: [[ms:Alfredo Astiz]]
2013-08-13T15:46:18+00:00,568373626,568372724,0,Goethean,American Monetary Institute,/* Conferences */ rm prof
2015-12-14T09:41:09+00:00,695185443,692672541,0,DangerousJXD,Anal sex,/* See also */Not necessary for an article not related to that.
2007-07-23T06:07:57+00:00,146470096,144038007,0,Harelx,American Monetary Institute,/* External links */
2006-12-04T04:10:56+00:00,91928657,91444073,0,24.29.18.0,Aleksandr Solzhenitsyn,/* Published works and speeches */
2015-07-08T18:24:46+00:00,670551788,670511093,0,EvergreenFir,Andreja Pejić,/* Early life */ birthname already given in lead. Just use surname here
2009-12-24T09:44:24+00:00,333782014,329857204,0,Sm1lodonfatal1s,Anal sex,/* Christianity */
2008-06-09T20:22:49+00:00,218245221,218117621,0,SmackBot,Anal sex,Date the maintenance tags or general  fixes
2018-11-10T21:23:10+00:00,868229276,866849935,0,Bryantriplex,Andreja Pejić,
2017-11-29T07:11:06+00:00,812683854,812600774,0,Mr KEBAB,Andreja Pejić,"Serbo-Croatian, not Slavic; wrong IPA"
2013-09-01T02:36:25+00:00,571023711,570964372,0,DoorsAjar,Andreja Pejić,Reverted 4 [[WP:AGF|good faith]] edits by [[Special:Contributions/KumangGawai|KumangGawai]] using [[WP:STiki|STiki]]
2022-09-01T12:10:31+00:00,1107891370,1098908016,0,120.159.38.19,Andreja Pejić,
2015-01-28T23:48:52+00:00,644625719,644625572,0,EvergreenFir,Andreja Pejić,Reverted 1 edit by [[Special:Contributions/Vinilii99|Vinilii99]] ([[User talk:Vinilii99|talk]]) to last revision by EvergreenFir. ([[WP:TW|TW]])
2012-06-29T06:16:16+00:00,499866927,499230724,0,Woohookitty,Andreja Pejić,[[:en:WP:CLEANER|WPCleaner]] v1.13 - Repaired 1 link to disambiguation page - [[WP:DPL|(You can help)]] - [[Bosnian]]
2011-09-24T04:11:11+00:00,452139172,452139138,0,74.61.246.85,Andreja Pejić,/* Career */
2013-03-02T20:09:45+00:00,541778414,541511060,0,Glump,Andreja Pejić,
2012-08-27T10:17:55+00:00,509403341,509058968,0,AdSz,Andreja Pejić,AdSz moved page [[Andrej Pejic]] to [[Andrej Pejić]]
2016-11-16T10:54:10+00:00,749829307,748874457,0,A Thousand Doors,Andreja Pejić,Wikilink
2017-10-21T14:06:24+00:00,806358004,806353083,0,Materialscientist,Andreja Pejić,Reverted 3 [[WP:AGF|good faith]] edits by [[Special:Contributions/216.199.2.184|216.199.2.184]] using [[WP:STiki|STiki]]
2011-08-16T13:11:44+00:00,445148873,443908281,0,99.172.30.10,Andreja Pejić,
2021-06-16T12:53:01+00:00,1028861128,1028855034,0,Skyerise,Andreja Pejić,"per WP:ETHNICITY, nationality at time of notablility only"
2014-02-02T06:36:14+00:00,593544756,593284326,0,Rebbing,Andreja Pejić,"Refer to Ms. Pejić consistently by her last name, instead of a mix."
2018-07-02T03:03:41+00:00,848469194,848469135,0,CallyMc,Andreja Pejić,Rescuing 10 sources and tagging 0 as dead. #IABot (v2.0beta)
2013-02-26T19:58:01+00:00,540727843,540586595,0,Tarisiwi,Andreja Pejić,"added music video appearance in ""The Stars (Are Out Tonight)"""
2016-07-08T15:49:04+00:00,728922106,725138196,0,2601:46:C801:5300:EC0E:98A:2E07:8E94,Andreja Pejić,
2020-06-27T22:55:06+00:00,964847249,964846707,0,141.138.61.86,Andreja Pejić,
2019-06-10T00:54:58+00:00,901150434,901150239,0,Kgrad,Andreja Pejić,/* Career */ corrected word order
2016-05-28T22:27:55+00:00,722555338,720163099,0,Florian Blaschke,Andreja Pejić,"Any reason not to simply write ""trans woman""?"
2011-05-09T15:34:46+00:00,428262647,124898607,0,MZMcBride,Arthur McDuffie,fixed redirect
2007-04-22T17:02:12+00:00,124898607,71525475,0,Hmwith,Arthur McDuffie,more specific
2021-08-06T22:56:36+00:00,1037497731,1037345875,0,Citation bot,Andreja Pejić,"Alter: title. Add: date, title. Changed bare reference to CS1/2. | [[WP:UCB|Use this bot]]. [[WP:DBUG|Report bugs]]. | Suggested by BrownHairedGirl | Linked from User:BrownHairedGirl/Articles_with_bare_links | #UCB_webform_linked 33/343"
2012-05-08T14:00:04+00:00,491383673,489439613,0,Diego Moya,Andreja Pejić,/* Career */  Clarify meaning of a jargon term
2008-02-15T01:48:53+00:00,191554393,191554290,0,Tony Sidaway,Ashes to Ashes (David Bowie song),/* Coopted iconography */
2019-12-18T14:48:45+00:00,931373135,930845863,0,Deeperknowledge22,Ashes to Ashes (David Bowie song),
2013-06-27T01:53:51+00:00,561759907,561374044,0,Synthwave.94,Ashes to Ashes (David Bowie song),"Changed singlechart references in order to fit the ""singlechart template"""
2008-12-15T00:43:56+00:00,258017191,251765679,0,Tuzapicabit,Ashes to Ashes (David Bowie song),/* Notes */ dates
2010-11-21T03:30:00+00:00,397990159,397989517,0,Ian Rose,Ashes to Ashes (David Bowie song),Revert to revision 394125368 dated 2010-11-01 06:49:18 by Headbomb using [[:en:Wikipedia:Tools/Navigation_popups|popups]]
2014-11-02T18:54:23+00:00,632173088,630853180,0,In ictu oculi,Ashes to Ashes (David Bowie song),
2018-06-01T08:54:46+00:00,843908143,843908085,0,Surtsicna,Andreja Pejić,/* External links */ Pejić has never worked in either Bosnia-Herzegovina or Serbia.
2017-08-22T01:41:07+00:00,796616575,795734825,0,GreenC bot,Australian Jews,Reformat 1 archive link. [[User:Green Cardamom/WaybackMedic_2.1|Wayback Medic 2.1]]
2009-06-11T22:00:15+00:00,295864133,293809459,0,96.232.208.156,Australian Jews,/* Personalities */
2009-10-21T09:16:03+00:00,321162230,318545965,0,Enthusiast01,Australian Jews,/* References */
2016-10-14T02:07:56+00:00,744249745,738040895,0,Lawrencekhoo,Austrian business cycle theory,Reverted to revision 734573976 by [[Special:Contributions/Lawrencekhoo|Lawrencekhoo]] ([[User talk:Lawrencekhoo|talk]]): Rv IP sock of banned user. ([[WP:TW|TW]])
2015-02-20T12:28:50+00:00,648031128,648030954,0,Ronaz,Australian Jews,Reverted [[WP:AGF|good faith]] edits by [[Special:Contributions/Nhjkut|Nhjkut]] ([[User talk:Nhjkut|talk]]): Removal of content without an edit summary or talk page entry. ([[WP:TW|TW]])
2017-08-20T20:51:39+00:00,796437715,795840125,0,Mariusm98,Austrian business cycle theory,
2020-03-18T18:06:10+00:00,946195972,944489878,0,Monkbot,Austrian business cycle theory,/* top */[[User:Monkbot/task_14: repair improper use of publisher params in cs1 templates|Task 14]]:  cs1 template fixes: misused |publisher= (0×/2×);
2020-03-24T20:53:37+00:00,947189626,946195972,0,Iridescent,Austrian business cycle theory,"/* ""Malinvestment"" and ""boom"" */Cleanup and [[WP:AWB/T|typo fixing]], [[WP:AWB/T|typo(s) fixed]]: longer term → longer-term"
2022-03-25T02:16:47+00:00,1079111754,1079111707,0,203.251.44.226,Austrian business cycle theory,/* Empirical research */
2007-02-25T00:25:54+00:00,110706552,106809136,0,85.218.35.70,Austrian business cycle theory,/* Theory */
2012-07-29T05:58:02+00:00,504709699,503010358,0,Xanchester,Austrian business cycle theory,Category
2013-05-20T05:24:26+00:00,555901203,555900220,0,Lawrencekhoo,Austrian business cycle theory,Reverted 1 edit by [[Special:Contributions/Danski14|Danski14]] ([[User talk:Danski14|talk]]): It's in the article. ([[WP:TW|TW]])
2006-09-28T19:25:37+00:00,78357016,65920306,0,KaiserbBot,Austrian business cycle theory,clean up  using [[WP:AWB|AWB]]
2011-12-22T21:17:33+00:00,467243847,467229826,0,Byelf2007,Austrian business cycle theory,"not consistent with other articles; we're here to inform the general public, not nerd out"
2015-04-20T05:32:38+00:00,657285835,657285330,0,Lawrencekhoo,Austrian business cycle theory,Reverted 1 edit by [[Special:Contributions/IcelandShowsTheWay|IcelandShowsTheWay]] ([[User talk:IcelandShowsTheWay|talk]]): Rv karmaisking sock. ([[WP:TW|TW]])
2019-09-14T13:54:54+00:00,915648732,915501628,0,Omnipaedista,Austrian business cycle theory,
2017-03-22T23:55:37+00:00,771690482,771681153,0,JzG,Austrian business cycle theory,"rm. [[WP:PRIMARY]], [[WP:SPS]]"
2018-07-25T14:46:43+00:00,851936420,851936362,0,Omnipaedista,Austrian business cycle theory,per MOS:BOLDSYN
2011-05-28T08:12:36+00:00,431306005,431305914,0,Byelf2007,Austrian business cycle theory,/* Responses */
2019-06-26T03:13:31+00:00,903513705,902469630,0,103.35.129.38,Austrian business cycle theory,/* Theoretical objections */
2013-04-08T12:38:08+00:00,549316394,548260767,0,125.253.96.133,Austrian business cycle theory,Added link to Nobel Memorial Prize in Economic Sciences
2022-02-02T00:01:30+00:00,1069369128,1058713374,0,67.180.143.89,Austrian business cycle theory,copyedit
2011-05-06T20:52:46+00:00,427808283,424846556,0,Alex1011,Austrian business cycle theory,Category:Business cycle theory
2013-09-07T04:47:47+00:00,571874499,570348415,0,50.151.39.72,Austrian business cycle theory,/* Empirical objections */
2010-09-28T21:03:17+00:00,387603304,387118088,0,RjwilmsiBot,Austrian business cycle theory,"/* Financial crisis of 2007–2010 */CiteCompletion, dates: 1, works/pubs: 1, titles: 1, using [[Project:AWB|AWB]] (7192)"
2012-07-18T19:59:20+00:00,503010358,502496335,0,Rjwilmsi,Austrian business cycle theory,/* Empirical research */Journal cites using [[Project:AWB|AWB]] (8087)
2011-08-05T05:15:56+00:00,443133480,443115880,0,Lawrencekhoo,Austrian business cycle theory,/* Financial crisis of 2007–2010 */ describe source
2014-09-13T19:35:12+00:00,625422979,612900716,0,Bender235,Austrian business cycle theory,"clean up; http->https or pr-URI, per [[Wikipedia:Village_pump_(policy)/Archive_111#As_WP_uses_HTTPS.2C_should_.28some.29_external_links.2C_too.3F|VPP]] using [[Project:AWB|AWB]]"
2011-09-12T01:56:43+00:00,449923662,449586970,0,EmausBot,Austrian business cycle theory,r2.6.4) (Robot: Modifying [[pt:Teoria austríaca do ciclo económico]]
2010-11-20T06:46:03+00:00,397821001,394507568,0,Levanrami,Austrian business cycle theory,/* Assertions */
2006-07-26T07:52:00+00:00,65920306,22744082,0,John Quiggin,Austrian business cycle theory,/* External links */ cat
2014-02-23T17:01:24+00:00,596793395,596793177,0,Qexigator,Austrian business cycle theory,/* Assertions */ rmv tag
2021-07-15T23:07:20+00:00,1033801538,1029683410,0,Citation bot,Austrian business cycle theory,"Add: isbn, s2cid, date. | [[WP:UCB|Use this bot]]. [[WP:DBUG|Report bugs]]. | Suggested by BrownHairedGirl | Linked from User:BrownHairedGirl/Articles_with_bare_links | #UCB_webform_linked 104/2191"
2010-08-25T01:29:09+00:00,380830274,380829673,0,Byelf2007,Austrian business cycle theory,/* Assertions */
2015-01-19T10:08:19+00:00,643184059,643119979,0,Lawrencekhoo,Austrian business cycle theory,/* Empirical research */
2013-10-11T03:51:48+00:00,576678373,576506133,0,69.125.161.195,Austrian business cycle theory,
2012-05-21T13:38:52+00:00,493658656,493636311,0,Mommy2012,Austrian business cycle theory,"/* Policy proposals */ Shostak and Rothbard try to emphasize what current deposits are, and how maturity """
2009-06-08T13:37:59+00:00,295168788,295149391,0,Lawrencekhoo,Austrian business cycle theory,[[WP:RBK|Reverted]] edits by [[Special:Contributions/BritishZombies|BritishZombies]] ([[User talk:BritishZombies|talk]]) to last version by Lawrencekhoo
2009-06-14T20:44:54+00:00,296416162,295582141,0,DrilBot,Austrian business cycle theory,[[WP:CHECKWIKI|Check Wikipedia]] cleanup ([[User:DrilBot/Summaries#Links|links]]) + [[WP:GENFIXES|gen. fixes]]
2021-03-21T04:21:56+00:00,1013352963,1013020999,0,61.68.149.168,Austrian business cycle theory,"/* ""Malinvestment"" and ""boom"" */"
2014-01-17T07:46:04+00:00,591090059,586416449,0,TAnthony,Austrian business cycle theory,Update deprecated cite parameter (coauthors) using [[Project:AWB|AWB]]
2016-05-18T01:41:54+00:00,720805445,719445795,0,Bender235,Austrian business cycle theory,clean up; http->https (see [[WP:VPR/Archive 127#RfC: Should we convert existing Google and Internet Archive links to HTTPS?|this RfC]]) using [[Project:AWB|AWB]]
2008-01-26T23:34:09+00:00,187128480,186454108,0,71.230.249.175,Austrian business cycle theory,/* Origins */ added link to term definition for specie
2008-07-28T06:32:30+00:00,228338199,228338088,0,Lawrencekhoo,Austrian business cycle theory,fixed en dash
2012-08-17T05:15:36+00:00,507793145,507793031,0,203.209.200.93,Austrian business cycle theory,/* Related policy proposals */
2008-09-10T10:12:37+00:00,237470231,237470134,0,Lawrencekhoo,Austrian business cycle theory,/* Assertions of the Theory */
2010-07-12T02:50:27+00:00,373010236,366869657,0,Leonard G.,Austrian business cycle theory,Austrians<Proponents
2012-03-10T22:15:38+00:00,481224223,479749449,0,Byelf2007,Austrian business cycle theory,grammar
2020-02-20T04:22:13+00:00,941703044,941262142,0,DemonDays64 Bot,Austrian business cycle theory,HTTPS security. [[User talk:DemonDays64|Tell me]] if there's an issue with my edit. (via [[WP:JWB]])
2017-12-12T18:54:22+00:00,815093748,815093697,0,128.187.112.4,Austrian business cycle theory,/* Malinvestment and “boom” */
2018-05-26T03:29:55+00:00,842993972,842993877,0,79.49.8.44,Austrian business cycle theory,
2008-07-21T14:12:13+00:00,226996536,208233977,0,DeluxNate,Austrian business cycle theory,Spelling and grammatical changes
2021-09-18T18:14:38+00:00,1045084449,1041340528,0,Yerevantsi,Austrian business cycle theory,David Glasner
2014-06-14T15:21:33+00:00,612900716,596793395,0,Malcolm77,Austrian business cycle theory,/* Assertions */
2009-07-31T10:47:37+00:00,305255151,305255027,0,194.80.105.133,Austrian business cycle theory,
2020-06-04T20:56:48+00:00,960775317,959004758,0,Citation bot,Austrian business cycle theory,"Add: s2cid, author pars. 1-1. Removed URL that duplicated unique identifier. Removed parameters. Some additions/deletions were actually parameter name changes. | You can [[WP:UCB|use this bot]] yourself. [[WP:DBUG|Report bugs here]]. | Activated by AManWithNoPlan | All pages linked from [[User:AManWithNoPlan/sandbox2]] | via #UCB_webform_linked"
2020-03-08T04:29:15+00:00,944489878,944374004,0,Citation bot,Austrian business cycle theory,Removed URL that duplicated unique identifier. | You can [[WP:UCB|use this bot]] yourself. [[WP:DBUG|Report bugs here]]. | Activated by [[User:AManWithNoPlan]] | All pages linked from [[User:AManWithNoPlan/sandbox2]].
2012-04-25T21:49:18+00:00,489222427,489148127,0,Byelf2007,Austrian business cycle theory,"irrelevant (especially for this section), no sources"
2013-11-11T01:52:52+00:00,581122001,580823342,0,Bender235,Austrian business cycle theory,clean up; switching selected [[WP:EXT|external links]] to [[HTTP Secure]]. using [[Project:AWB|AWB]]
2007-01-22T13:47:44+00:00,102428489,102428284,0,Rintrah,Austrian business cycle theory,adding tone tag - tone needs attention
2007-06-06T01:05:21+00:00,136214733,132607913,0,Marioosz,Austrian business cycle theory,+ [[pl:Austriacka teoria cyklu koniunkturalnego]]
2009-05-11T01:23:14+00:00,289168141,289168029,0,Awesomeeconomist,Austrian business cycle theory,moved [[Austrian Business Cycle Theory]] to [[Austrian business cycle theory]]:&#32;Change title caps into more common lower case.
2022-08-29T10:38:17+00:00,1107318829,1096727887,0,82.40.255.8,Austrian business cycle theory,Removed references to white supremacist beliefs such as fractional reserve banking
2010-09-12T11:40:13+00:00,384372939,383782343,0,94.162.118.13,Austrian business cycle theory,/* Critiques */
2011-01-04T06:44:19+00:00,405841238,397821001,0,Woohookitty,Austrian business cycle theory,[[:en:WP:CLEANER|WikiCleaner]] 0.99 - Repairing link to disambiguation page - [[WP:DPL|(You can help)]] - [[Banks]]
2016-04-08T07:28:46+00:00,714198662,710344773,0,17.255.253.25,Austrian business cycle theory,
2010-06-08T20:57:46+00:00,366869657,366869347,0,Satori Son,Austrian business cycle theory,pp-semi-sock
2019-02-15T08:46:15+00:00,883420707,881441152,0,Citation bot,Austrian business cycle theory,"Add: doi, pages, volume. Removed parameters. Formatted [[WP:ENDASH|dashes]]. | You can [[WP:UCB|use this bot]] yourself. [[WP:DBUG|Report bugs here]]. | [[WP:UCB|User-activated]]."
2011-02-22T21:18:36+00:00,415385873,411591202,0,R'n'B,Austrian business cycle theory,Fix [[WP:DPL|links]] to [[WP:D|disambiguation]] page [[Specie]]
2015-01-08T23:36:36+00:00,641647339,638378235,0,Ivona Djuric,Austrian business cycle theory,General clean ups
2012-06-01T22:51:22+00:00,495532974,495532476,0,Byelf2007,Austrian business cycle theory,/* Assertions */
2017-04-22T06:34:25+00:00,776626300,771690482,0,2602:304:CE0D:F130:1998:5578:7F:EAC5,Austrian business cycle theory,/* Empirical research */Fixed typo
2016-09-06T15:50:15+00:00,738040895,738031994,0,139.18.44.165,Austrian business cycle theory,/* Empirical research */
2021-06-21T12:11:37+00:00,1029683410,1024919314,0,120.88.132.105,Austrian business cycle theory,/* See also */  Notable proponent of ABCT
2012-09-01T21:19:43+00:00,510335992,510335524,0,Byelf2007,Austrian business cycle theory,/* Criticisms */
2009-02-11T08:38:23+00:00,269962866,269878534,0,MrVanBot,Austrian business cycle theory,"robot  Removing: fr, ja, nl, pt, ru, sk, sr, sv, zh Modifying: pl, uk"
2014-12-16T17:29:44+00:00,638378235,637304262,0,GreedyCapitalist,Austrian business cycle theory,fix broken book download links
2011-09-09T02:30:48+00:00,449255726,449226385,0,Cretog8,Austrian business cycle theory,"Undid revision 449226385 by [[Special:Contributions/BigK HeX|BigK HeX]] ([[User talk:BigK HeX|talk]]) it's an Austrian theory, it's bound to be Austrians presenting it"
2011-04-19T12:25:06+00:00,424846556,424846493,0,BigK HeX,Austrian business cycle theory,"Undid revision 424818332 by [[User:Terra Novus]].  per [[WP:NPOV]], ""it should always be clear which parts of the text describe the minority view"""
2010-11-03T02:28:00+00:00,394507568,393359949,0,Edward,Austrian business cycle theory,link [[financialization]] using [[User:Edward/Find link|Find link]]
2020-10-05T17:22:26+00:00,982005956,970514945,0,107.77.204.109,Austrian business cycle theory,link
2009-12-12T13:21:18+00:00,331257113,331044018,0,Lawrencekhoo,Austrian business cycle theory,Reverted 1 edit by [[Special:Contributions/ImperfectlyInformed|ImperfectlyInformed]]; Claim supported by sources. read Krugman for example. ([[WP:TW|TW]])
2013-12-17T00:00:23+00:00,586416449,586415453,0,SPECIFICO,Austrian business cycle theory,/* Assertions */ copy edit conform to source clarify connections.  Still needs better source for exposition.
2015-09-09T03:06:46+00:00,680162017,679843826,0,Lawrencekhoo,Austrian business cycle theory,Reverted to revision 669859304 by [[Special:Contributions/80.215.178.52|80.215.178.52]] ([[User talk:80.215.178.52|talk]]): Rv sockpuppets of banned user Karmaisking. ([[WP:TW|TW]])
2018-12-06T21:53:50+00:00,872368667,865421173,0,98.116.10.67,Austrian business cycle theory,Added MIlton Friedman's first name for clarity.
2021-08-30T00:23:41+00:00,1041340528,1033801538,0,CWenger,Austrian business cycle theory,/* top */ uc
2007-02-09T10:46:06+00:00,106809136,102428489,0,80.109.117.16,Austrian business cycle theory,
2021-12-05T04:06:31+00:00,1058713374,1058713306,0,SethThoburn,Austrian business cycle theory,/* Bust */
2015-03-04T12:33:01+00:00,649832151,647510963,0,124.187.150.67,Austrian business cycle theory,
2019-10-01T11:44:24+00:00,919017917,919017854,0,220.233.199.86,Austrian business cycle theory,
2015-09-01T23:17:56+00:00,679007774,678758313,0,GFCMkII,Austrian business cycle theory,
2013-01-29T17:28:00+00:00,535543494,535007398,0,Byelf2007,Austrian business cycle theory,/* Assertions */
2013-07-27T18:25:00+00:00,566049581,555901203,0,A455bcd9,Austrian business cycle theory,/* Further reading */
2019-02-02T16:35:30+00:00,881441152,872368667,0,Citation bot,Austrian business cycle theory,"Alter: template type, date. Add: year, issue, volume, journal, date. Removed parameters. | You can [[WP:UCB|use this bot]] yourself. [[WP:DBUG|Report bugs here]]. | [[WP:UCB|User-activated]]."
2007-09-12T12:04:14+00:00,157360482,157359949,0,Lordmetroid,Austrian business cycle theory,/* Theory */
2010-01-16T05:27:00+00:00,338129979,338128443,0,Nbarth,Austrian business cycle theory,/* Critiques */ Great moderation
2008-01-15T13:38:01+00:00,184485496,184484656,0,RandomXYZb,Austrian business cycle theory,Reverted edits by [[Special:Contributions/Toolssmile34|Toolssmile34]] ([[User talk:Toolssmile34|talk]]) to last version by Will Beback
2012-03-30T14:35:37+00:00,484702279,484683154,0,Ravensfire,Austrian business cycle theory,Undid revision 484683154 by [[Special:Contributions/FistGoldmanMuppets|FistGoldmanMuppets]] ([[User talk:FistGoldmanMuppets|talk]])
2009-02-22T05:10:10+00:00,272425647,272409177,0,John Quiggin,Austrian business cycle theory,rv sock
2012-12-07T17:40:11+00:00,526894814,526770299,0,Byelf2007,Austrian business cycle theory,/* Assertions */
2018-02-06T16:36:23+00:00,824313301,823020864,0,Loraof,Austrian business cycle theory,/* top */  more concise wording
2015-05-07T00:29:42+00:00,661180606,657285835,0,AnulBanul,Austrian business cycle theory,
2013-02-28T04:53:49+00:00,541145970,540170057,0,Citation bot,Austrian business cycle theory,[423]Add: doi. Tweak: doi.  [[WP:UCB|User-activated]].
2009-09-10T21:38:06+00:00,313076910,313042889,0,Snigbrook,Austrian business cycle theory,undo edits by 71.109.216.42 – unsourced/POV
2012-09-01T09:07:01+00:00,510250486,510250427,0,101.161.38.227,Austrian business cycle theory,/* Criticisms */  Put it in a more relevant section
2008-11-15T08:07:53+00:00,251926892,251860863,0,122.104.51.231,Austrian business cycle theory,Punchy
2019-10-14T18:05:03+00:00,921236553,919017917,0,Tassedethe,Austrian business cycle theory,v2.02 - Repaired 1 link to disambiguation page - [[WP:DPL|(You can help)]] - [[Meltdown (book)]]
2016-05-09T18:59:29+00:00,719445795,719229964,0,Marcocapelle,Austrian business cycle theory,removed grandparent category of [[Category:Business cycle theory]]
2009-08-15T01:26:28+00:00,308048865,307482186,0,SmackBot,Austrian business cycle theory,Date maintenance tags and general  fixes
2020-04-21T22:44:54+00:00,952372922,951000638,0,HMman,Austrian business cycle theory,"/* History */ Updating link of ref, and wikifying other ref. Rm weasel words. Not sure whether the last few paragraphs really belong in the History section, but don't have the necessary time or knowledge for more editing right now"
2007-12-26T09:23:30+00:00,180227067,177282943,0,75.37.206.111,Austrian business cycle theory,
2012-03-02T01:36:41+00:00,479749449,479390622,0,Byelf2007,Austrian business cycle theory,/* Assertions */
2012-04-27T21:49:42+00:00,489535221,489447333,0,BigK HeX,Austrian business cycle theory,"Undid revision 489447333 by [[Special:Contributions/Byelf2007|Byelf2007]] ([[User talk:Byelf2007|talk]]) there is nothing ""weasel"" about that"
2007-05-10T02:01:18+00:00,129708870,110706552,0,Kalmia,Austrian business cycle theory,/* Theory */ improved wording a little
2015-10-22T13:21:41+00:00,686961406,686927478,0,Ravensfire,Austrian business cycle theory,Undid revision 686927478 by [[Special:Contributions/HiFromIcelandWeRecoveredByJailingBankers|HiFromIcelandWeRecoveredByJailingBankers]] ([[User talk:HiFromIcelandWeRecoveredByJailingBankers|talk]])rv KiK sock
2019-08-31T06:12:51+00:00,913302885,913302870,0,220.233.193.206,Austrian business cycle theory,/* Government policy error */
2008-03-11T05:08:19+00:00,197413668,197067160,0,Hayesy316,Austrian business cycle theory,
2009-11-26T09:55:16+00:00,328018402,327964880,0,BigK HeX,Austrian business cycle theory,[[WP:UNDO|Undid]] revision 327964880 by [[Special:Contributions/149.43.120.35|149.43.120.35]] ([[User talk:149.43.120.35|talk]])
2022-07-06T08:01:49+00:00,1096727887,1079111754,0,Wikideas1,Austrian business cycle theory,/* The role of central banks */ {{see also}}
2017-08-03T07:26:30+00:00,793672662,782630267,0,Bender the Bot,Austrian business cycle theory,/* History */Repairing broken [[Wall Street Journal]] links using [[Project:AWB|AWB]]
2019-12-09T11:13:25+00:00,929969365,929966887,0,Materialscientist,Austrian business cycle theory,Reverted edits by [[Special:Contribs/PrepareForMonetaryRevolution|PrepareForMonetaryRevolution]] ([[User talk:PrepareForMonetaryRevolution|talk]]) to last version by Citation bot
2009-02-25T12:28:49+00:00,273176721,273176422,0,John Quiggin,Austrian business cycle theory,/* Critiques */ rm back-and-forth
2011-10-09T09:06:41+00:00,454682265,454365465,0,Vision Thing,Austrian business cycle theory,/* Influence */ Late-2000s financial crisis
2012-01-18T00:53:38+00:00,471965248,471962691,0,AnomieBOT,Austrian business cycle theory,Dating maintenance tags: {{Citation needed}}
2011-09-06T06:52:26+00:00,448708259,446992255,0,Luckas-bot,Austrian business cycle theory,r2.7.1) (robot Modifying: [[pt:Teoria Austríaca dos Ciclos Econômicos]]
2012-04-10T04:25:40+00:00,486561677,486357800,0,Lawrencekhoo,Austrian business cycle theory,"Reverted 1 edit by [[Special:Contributions/Amanski|Amanski]] ([[User talk:Amanski|talk]]): Synthesis, also incorrect. ([[WP:TW|TW]])"
2016-02-03T03:24:00+00:00,703039776,702837466,0,59.167.67.161,Austrian business cycle theory,
2010-04-06T10:32:26+00:00,354290967,351610332,0,203.63.130.65,Austrian business cycle theory,/* External links */
2005-09-07T02:45:02+00:00,22744082,22743977,0,Alex Bakharev,Austrian business cycle theory,/* External links */ cat
2007-12-11T20:39:24+00:00,177282943,174188383,0,204.146.182.254,Austrian business cycle theory,
2006-11-21T04:39:51+00:00,89166312,89166182,0,RayBirks,Austrian business cycle theory,/* Origins */ wikify link
2021-03-09T20:34:54+00:00,1011243760,1003255830,0,15,Austrian business cycle theory,"Importing Wikidata [[Wikipedia:Short description|short description]]: ""Economic theory"" ([[Wikipedia:Shortdesc helper|Shortdesc helper]])"
2010-09-09T06:05:06+00:00,383782343,380830274,0,Headbomb,Austrian business cycle theory,clean up for [[Book:The Federal Reserve System]] using [[Project:AWB|AWB]]
2011-10-17T20:56:04+00:00,456072211,456071974,0,Byelf2007,Austrian business cycle theory,"AS doesn't claim that their theory applies to all recessions (i.e. if Iran stopped exporting oil, natural disasters, etc)"
2018-05-14T14:00:45+00:00,841179801,835267481,0,2620:0:5301:2101:5D77:8466:524:73FC,Austrian business cycle theory,The quote listed is not in the original text. I have the text copy in front of me and can find no mention of the quote. It is also not in a pdf copy found here: http://www.nber.org/chapters/c4453.pdf All online references to this quote seem to originate at Wikipedia.
2008-11-19T08:04:48+00:00,252742738,252592825,0,Galoubet,Austrian business cycle theory,
2017-05-28T04:47:50+00:00,782630267,782614754,0,Lawrencekhoo,Austrian business cycle theory,"fix reason papers links, other minor fixes"
2009-06-24T13:57:42+00:00,298353165,298206843,0,PDFbot,Austrian business cycle theory,Updating 2 PDFs
2010-05-22T17:57:47+00:00,363585848,363076527,0,Johanesw,Austrian business cycle theory,
2015-11-02T16:01:03+00:00,688707730,686961406,0,Lawrencekhoo,Austrian business cycle theory,/* top */ redundant wording
2021-05-24T19:03:03+00:00,1024919314,1024919027,0,Bueller 007,Austrian business cycle theory,/* History */
2022-03-13T02:58:54+00:00,1076813542,1076416289,0,BrownHairedGirl,Austrian business cycle theory,tag with {{[[Template:Bare URL PDF|Bare URL PDF]]}}
2012-12-19T14:38:21+00:00,528806482,528801592,0,SPECIFICO,Austrian business cycle theory,"/* Empirical objections */ Removed redundant Garrison mention that does not conform to statements in cited source included above. Deleted Soto, not responsive to Friedman article and not notable."
2008-04-26T00:59:07+00:00,208233977,207282039,0,71.215.170.78,Austrian business cycle theory,
2008-12-17T20:57:54+00:00,258642574,257907774,0,67.170.214.189,Austrian business cycle theory,/* Critiques */ minor grammar correction
2010-05-30T15:57:21+00:00,365040654,364481917,0,John Cline,Austrian business cycle theory,/* Similar theories */ Semi-protected edit request granted
2015-05-20T04:40:04+00:00,663203550,661180606,0,76.28.208.25,Austrian business cycle theory,"Moved suggested book (maybe an advertisement) ""Time and Money"" by Roger Garrison to the ""Further Reading"" section."
2010-02-26T05:54:44+00:00,346447045,346263761,0,BigK HeX,Austrian business cycle theory,/* Origin */ removing uncited historical claim
2013-01-18T05:55:21+00:00,533650438,533624791,0,Srich32977,Austrian business cycle theory,/* History */ trim Rothbard footnote
2009-12-05T05:42:21+00:00,329819378,328018402,0,96.244.213.156,Austrian business cycle theory,/* Empirical research */
2013-03-14T15:30:41+00:00,544118682,541145970,0,Addbot,Austrian business cycle theory,"[[User:Addbot|Bot:]] Migrating 11 interwiki links, now provided by [[Wikipedia:Wikidata|Wikidata]] on [[d:q2324183]]"
2018-10-23T20:57:05+00:00,865421173,864963317,0,Ravensfire,Austrian business cycle theory,/* See also */ refs not needed on see also
2015-06-22T23:03:23+00:00,668206118,667625107,0,203.174.135.50,Austrian business cycle theory,
2015-02-12T04:03:38+00:00,646749655,646748415,0,Ivona Djuric,Austrian business cycle theory,"/* Criticisms */  Doesn't actually say ""most"" and has no way of knowing in any case.  he doesn't believe it.  That's all that can be said."
2008-03-23T18:30:38+00:00,200344252,197413668,0,RayBirks,Austrian business cycle theory,/* Origins */ add italics to book titles
2011-08-27T16:23:32+00:00,446992255,446947238,0,WereSpielChequers,Austrian business cycle theory,preform - perform
2009-06-05T13:41:28+00:00,294574068,294539292,0,SassoBot,Austrian business cycle theory,robot  Adding: [[it:Teoria austriaca del ciclo economico]] Modifying: [[es:Teoría austríaca del ciclo económico]]
2009-02-02T08:39:08+00:00,268000467,266657620,0,ZeroGrowthForever,Austrian business cycle theory,/* Origin */
2011-02-02T15:37:36+00:00,411591202,405841238,0,Ospalh,Austrian business cycle theory,"clean up per [[MOS:DASH]], replaced: Glass-Steagall → Glass–Steagall using [[Project:AWB|AWB]]"
2020-04-05T10:32:53+00:00,949240159,949236380,0,MoneyDoesn'tCompensateForStupidity,Austrian business cycle theory,/* Criticisms */
2012-06-12T04:38:19+00:00,497172876,497160468,0,Byelf2007,Austrian business cycle theory,/* Influence */
2009-03-14T16:35:25+00:00,277207422,277135485,0,BigK HeX,Austrian business cycle theory,/* Critiques */ removed [[Panic of 1819|1819]] .... not historically accurate in the context used
2016-06-20T05:41:27+00:00,726124063,725424858,0,Jmcgnh,Austrian school of economics,Disambiguated: [[Principles of Economics]] → [[Principles of Economics (Menger)]]
2022-01-15T02:42:34+00:00,1065744280,1065744231,0,Acroterion,Austrian school of economics,Reverted edits by [[Special:Contribs/2601:18F:4100:13A0:4D95:E5A9:F3C5:7348|2601:18F:4100:13A0:4D95:E5A9:F3C5:7348]] ([[User talk:2601:18F:4100:13A0:4D95:E5A9:F3C5:7348|talk]]) to last version by Acroterion
2018-07-26T07:31:36+00:00,852041545,851732771,0,Lawrencekhoo,Austrian school of economics,/* top */ paragraphing
2019-07-11T12:57:50+00:00,905790722,905790667,0,Zachary Schr,Austrian school of economics,Reverted 1 edit by [[Special:Contributions/51.52.8.38|51.52.8.38]] ([[User talk:51.52.8.38|talk]]) to last revision by TomSmithNP ([[WP:TW|TW]])
2017-11-04T13:55:59+00:00,808687623,806852203,0,JustJust51,Austrian school of economics,
2012-02-04T06:39:10+00:00,474915269,474915157,0,Byelf2007,Austrian school of economics,/* Business cycle theory */
2018-05-23T12:52:08+00:00,842595410,842234763,0,Joelkaula,Austrian school of economics,~~
2014-12-13T03:59:11+00:00,637863984,637861508,0,Vgy7ujm,Austrian school of economics,The criticism paragraph in Contributions to economic thought is largely duplicated by another paragraph in Criticism (they use the same references). Merged the two paragraphs into Criticism.
2007-09-14T08:02:10+00:00,157805852,156275093,0,Hxhbot,Austrian school of economics,robot  Adding: [[no:Den østerrikske skole]]
2016-01-28T05:55:04+00:00,702065443,702016218,0,Lawrencekhoo,Austrian school of economics,/* Influence */
2009-07-13T13:52:11+00:00,301858692,300872303,0,152.33.59.35,Austrian school of economics,
2008-12-08T09:04:10+00:00,256590383,256590168,0,ArableLand,Austrian school of economics,
2016-07-09T16:18:33+00:00,729062207,726124063,0,J 1982,Austrian school of economics,confuse
2019-10-07T04:55:13+00:00,920008469,919911889,0,InternetArchiveBot,Austrian school of economics,Rescuing 1 sources and tagging 0 as dead.) #IABot (v2.0
2010-01-25T04:46:50+00:00,339865208,339865013,0,BigK HeX,Austrian school of economics,/* Criticism */ strike repetitive sentence
2020-12-06T08:31:40+00:00,992630391,992149125,0,Benjaminikuta,Austrian school of economics,/* Influence */
2018-11-06T11:56:47+00:00,867544895,865549985,0,Гармонический Мир,Austrian school of economics,/* See also */
2019-04-30T14:43:44+00:00,894867856,894851905,0,AnomieBOT,Austrian school of economics,Dating maintenance tags: {{Citation needed}}
2017-04-04T14:59:26+00:00,773810007,771265554,0,92.57.124.107,Austrian school of economics,/* See also */ school of salamanca
2017-08-30T02:00:47+00:00,797938543,797275458,0,KolbertBot,Austrian school of economics,Bot: [[Wikipedia:Bots/Requests for approval/KolbertBot|HTTP→HTTPS]]
2015-02-05T16:34:08+00:00,645767997,645765296,0,Allixpeeke,Austrian school of economics,"/* Principal works */ Reorganised by publication date, added publication dates"
2017-10-02T13:07:37+00:00,803423744,803422992,0,Hairy Dude,Austrian school of economics,/* Criticisms */punctuation
2008-10-23T06:32:32+00:00,247119164,247118841,0,Ron Paul...Ron Paul...,Austrian school of economics,/* The Austrian view of inflation */
2012-01-24T06:44:23+00:00,472937643,472043982,0,Byelf2007,Austrian school of economics,better flow
2012-07-15T03:06:09+00:00,502346386,502213180,0,Byelf2007,Austrian school of economics,"this is very controversial--please take to talk (I think most Austrian economists actually do think this--as in if their theories don't correspond to empirical evidence, they have to revise them or get more data) , cumbersome prose"
2019-11-30T13:20:36+00:00,928610179,928032033,0,94.211.191.66,Austrian school of economics,/* Split among contemporary Austrians */
2015-06-03T13:55:03+00:00,665326639,663285602,0,Chris the speller,Austrian school of economics,/* First Wave */replaced: Century → -century using [[Project:AWB|AWB]]
2012-08-21T13:25:06+00:00,508452626,507347061,0,DumbBOT,Austrian school of economics,removing a protection template from a non-protected page ([[User:DumbBOT/Protection|info]])
2019-02-21T23:47:51+00:00,884488655,883140085,0,Y-S.Ko,Austrian school of economics,/* General criticisms */
2008-04-13T05:11:22+00:00,205272263,203516571,0,Herunar,Austrian school of economics,"/* Criticism */ add example, elaboration"
2018-03-27T11:09:11+00:00,832676340,830411198,0,Omnipaedista,Austrian school of economics,see MOS:SECTIONORDER
2020-03-21T20:45:37+00:00,946695558,946695457,0,BCNViki,Austrian school of economics,
2018-08-02T11:56:47+00:00,853096150,853005342,0,North8000,Austrian school of economics,Spacing on new edit.   Not that I'm saying it should stay.
2011-08-04T07:29:33+00:00,442975961,442975257,0,Lawrencekhoo,Austrian school of economics,"/* Methodology */ rm 'faux' manuscript page. Unsourced, no context, dubious encyclopedic value"
2020-09-25T16:02:16+00:00,980277304,977876643,0,Swiftestcat,Austrian school of economics,Removed the citation that sourced https://austrianeconomists.typepad.com/weblog/2008/05/is-austrian-eco.html to comply with [[WP:UGC]]
2011-06-24T13:51:31+00:00,435977523,435961668,0,Cretog8,Austrian school of economics,/* See also */ remove self-link via redirect
2017-01-24T01:37:27+00:00,761649400,761648341,0,Lawrencekhoo,Austrian school of economics,/* Fundamental tenets */
2016-02-02T20:11:39+00:00,702983652,702065443,0,98.113.33.8,Austrian school of economics,/* Business cycle theory */
2007-05-03T22:14:11+00:00,128069898,128038417,0,DavidCBryant,Austrian school of economics,[[WP:UNDO|Undid]] revision 128038417 by [[Special:Contributions/149.8.226.148|149.8.226.148]] ([[User talk:149.8.226.148|talk]])
2008-07-06T07:26:12+00:00,223871944,223688430,0,Lawrencekhoo,Austrian school of economics,/* Analytical framework */  copyedit & some context
2015-02-10T10:24:05+00:00,646479712,645767997,0,Rjwilmsi,Austrian school of economics,"/* Further reading */Journal cites, templated 1 journal cites using [[Project:AWB|AWB]] (10820)"
2007-09-07T14:15:08+00:00,156275093,156274962,0,AntiSpamBot,Austrian school of economics,BOT--Reverting edits by [[Special:Contributions/201.21.231.165|201.21.231.165]] to revision 154968589 (example\.com)
2008-03-19T21:35:20+00:00,199440525,199440212,0,91.86.20.120,Austrian school of economics,/* Economists affiliated with the Austrian School */
2009-07-07T21:33:15+00:00,300872303,300772505,0,DickClarkMises,Austrian school of economics,"[[WP:UNDO|Undid]] revision 300772505 by [[Special:Contributions/Lawrencekhoo|Lawrencekhoo]] ([[User talk:Lawrencekhoo|talk]]) because this verbiage is clearly describing the AS view, not maj. view"
2016-12-28T09:44:13+00:00,757029942,757029301,0,Jmcgnh,Austrian school of economics,"Undid revision 757029301 by [[Special:Contributions/70.78.148.149|70.78.148.149]] ""reflect"" is the verb for ""costs""; ""calculate"" is the verb for ""producers and other economic actors"". Admittedly a complex sentence construction."
2018-07-20T02:54:38+00:00,851103131,851103058,0,Darx9url,Austrian school of economics,Space
2007-05-22T22:50:31+00:00,132798968,132195629,0,207.62.247.131,Austrian school of economics,/* Analytical framework */
2012-03-17T20:30:14+00:00,482425916,482299956,0,Yobot,Austrian school of economics,[[WP:CHECKWIKI]] error  fixes + [[WP:GENFIXES|general fixes]] using [[Project:AWB|AWB]] (8021)
2021-03-22T02:14:39+00:00,1013525060,1013020921,0,LaborHorizontal,Austrian school of economics,/* Economic calculation problem */
2008-12-07T11:19:47+00:00,256401678,256397335,0,John Quiggin,Austrian school of economics,[[WP:UNDO|Undid]] revision 256397335 by [[Special:Contributions/ArableLand|ArableLand]] ([[User talk:ArableLand|talk]]) rv edit with PA in summary
2012-08-05T15:34:55+00:00,505916279,505888397,0,Lawrencekhoo,Austrian school of economics,Reverted 1 edit by [[Special:Contributions/101.161.38.227|101.161.38.227]] ([[User talk:101.161.38.227|talk]]): OR commentary. ([[WP:TW|TW]])
2007-12-31T18:49:20+00:00,181236051,180928817,0,209.202.30.206,Austrian school of economics,"Link is dead, ad page."
2009-11-05T04:41:12+00:00,324029564,322604992,0,Citation bot,Austrian school of economics,Citation maintenance. [U56]Formatted: isbn.  You can [[WP:UCB|use this bot]] yourself! Please [[User:Citation_bot/bugs|report any bugs]].
2009-05-29T03:33:11+00:00,293024000,292328673,0,GrEp,Austrian school of economics,"Changed ""impossible"" to [[Undecidable_problem|undecideable]]). This is more mathematically accurate term."
2018-12-05T13:46:56+00:00,872152176,867544895,0,Jean.julius,Austrian school of economics,
2016-04-14T06:51:31+00:00,715187158,715174453,0,Netoholic,Austrian school of economics,/* External links */ {{authority control}}
2019-05-15T04:48:25+00:00,897158878,897158821,0,2601:647:4F00:1CFB:659E:93B:D650:DBA3,Austrian school of economics,/* Early 20th century */
2008-03-23T18:25:07+00:00,200343185,200306446,0,RayBirks,Austrian school of economics,/* History */ wikify
2007-09-19T16:59:00+00:00,158981951,157805852,0,64.172.226.100,Austrian school of economics,/* Criticism */
2010-06-10T15:20:44+00:00,367220567,366600071,0,Thomasmeeks,Austrian school of economics,"/* References */Stephen Littlechild, ed. (1990). ''Austrian economics'',  3 v.to precede ""Fn."" [reached directly win text], follow ""Seminal works"""
2018-02-02T10:18:43+00:00,823618371,818773651,0,Rjwilmsi,Austrian school of economics,"/* Later twentieth century */Journal cites, Added 1 doi to a journal cite using [[Project:AWB|AWB]] (12158)"
2010-01-06T00:16:10+00:00,336104285,335954651,0,BigK HeX,Austrian school of economics,changing section header to something which better reflects the current contents
2017-02-08T06:08:59+00:00,764313818,764313731,0,Guilherme 36,Austrian school of economics,/* Split among contemporary Austrians */
2008-11-29T02:52:12+00:00,254720085,254720019,0,24.193.68.37,Austrian school of economics,
2020-09-11T14:18:53+00:00,977876643,976849459,0,173.233.34.228,Austrian school of economics,/* Influence */
2008-09-20T07:29:44+00:00,239746357,239719996,0,Lawrencekhoo,Austrian school of economics,"Not OR, per the consensus from the discussion on the [[WP:OR/N|OR noticeboard]] about this topic"
2009-12-29T15:05:07+00:00,334732368,334647412,0,Xday,Austrian school of economics,/* Influence */
2017-01-08T02:33:29+00:00,758883334,758773937,0,Lawrencekhoo,Austrian school of economics,"Reverted to revision 758746914 by [[Special:Contributions/Lawrencekhoo|Lawrencekhoo]] ([[User talk:Lawrencekhoo|talk]]): Rv sock, per [[WP:DENY]]. ([[WP:TW|TW]])"
2014-07-01T12:42:25+00:00,615148459,613352876,0,93.82.140.35,Austrian school of economics,/* See also */
2019-03-16T16:48:36+00:00,888055075,888052209,0,Ravensfire,Austrian school of economics,"Reverted 2 edits by [[Special:Contributions/Creditor666|Creditor666]] ([[User talk:Creditor666|talk]]): Unsourced, poorly sourced and edit-warring ([[WP:TW|TW]])"
2020-11-16T13:31:07+00:00,988997619,987187790,0,TheEpicGhosty,Austrian school of economics,added capitalism sidebar
2013-04-17T05:13:40+00:00,550759221,550609076,0,ChrisGualtieri,Austrian school of economics,General Fixes using [[Project:AWB|AWB]]
2018-10-20T19:11:41+00:00,864961424,864664140,0,Æthereal,Austrian school of economics,/* See also */Added link + ref to book stating Austrian School contention that Fed caused Depression — readers can thus decide for themselves where to click without being subjected to censorship since free dissemination of info is the essence of Wikipedia.
2012-12-22T18:47:19+00:00,529315263,529307809,0,SPECIFICO,Austrian school of economics,Remove dead citations and conform Buchanan statement to source.
2021-10-18T22:38:52+00:00,1050617669,1047715698,0,InedibleHulk,Austrian school of economics,"/* General criticism */ Too long, too redundant, yadda yadda."
2011-02-24T08:03:43+00:00,415655327,414643788,0,Lawrencekhoo,Austrian school of economics,/* External links */ rm inappropriate cat
2014-02-10T11:25:22+00:00,594809873,594473468,0,95.122.127.126,Austrian school of economics,/* Split among contemporary Austrians */
2013-11-11T01:20:29+00:00,581118324,580219326,0,Bender235,Austrian school of economics,clean up; switching selected [[WP:EXT|external links]] to [[HTTP Secure]]. using [[Project:AWB|AWB]]
2013-04-21T19:11:13+00:00,551499854,551499619,0,Steeletrap,Austrian school of economics,
2020-08-17T19:16:05+00:00,973534819,972499370,0,2001:BB6:D69:6A00:91C5:53A0:D958:ECCA,Austrian school of economics,
2013-05-17T03:28:25+00:00,555459811,555454530,0,SPECIFICO,Austrian school of economics,/* Twentieth century */
2012-03-27T09:42:46+00:00,484152665,483304662,0,Helpful Pixie Bot,Austrian school of economics,ISBNs (Build KB)
2013-11-22T20:57:29+00:00,582868352,582864377,0,Binksternet,Austrian school of economics,Reverted [[WP:AGF|good faith]] edits by [[Special:Contributions/147.153.57.192|147.153.57.192]] ([[User talk:147.153.57.192|talk]]): Rv per [[WP:NOR]]. ([[WP:TW|TW]])
2022-04-13T01:25:23+00:00,1082408215,1082407610,0,Lawrencekhoo,Austrian school of economics,/* Empirical objections */
2009-05-08T04:39:38+00:00,288615687,288294532,0,Lawrencekhoo,Austrian school of economics,add criticism
2015-12-23T18:29:30+00:00,696516197,687382783,0,Rjwilmsi,Austrian school of economics,"Journal cites, Added 2 dois to journal cites using [[Project:AWB|AWB]] (11760)"
2009-03-09T08:22:00+00:00,275993360,275993304,0,SlamDiego,Austrian school of economics,/* Influence */ Fixed own typo.
2016-03-01T18:46:30+00:00,707774210,707773910,0,Spicemix,Austrian school of economics,/* Methodology */ link
2019-04-26T11:46:52+00:00,894217268,894217155,0,Lawrencekhoo,Austrian school of economics,/* top */ following source
2010-02-07T12:07:57+00:00,342471899,342241212,0,Lawrencekhoo,Austrian school of economics,Reverted 1 edit by [[Special:Contributions/122.104.55.158|122.104.55.158]]; Rv banned editor KiK. ([[WP:TW|TW]])
2021-01-21T01:49:11+00:00,1001730571,1000089193,0,68.162.214.28,Austrian school of economics,
2013-09-13T18:04:46+00:00,572787392,571323304,0,JPX7,Austrian school of economics,
2013-05-09T21:47:46+00:00,554353364,554351136,0,Goethean,Austrian school of economics,citation is already given
2013-04-05T17:43:49+00:00,548868232,548542033,0,Darkstar1st,Austrian school of economics,/* Capital and interest */
2016-12-10T00:26:03+00:00,753952689,753952330,0,Srich32977,Austrian school of economics,ce
2013-05-11T01:24:17+00:00,554527948,554526958,0,SPECIFICO,Austrian school of economics,Reverted 1 edit by [[Special:Contributions/Justinw303|Justinw303]] ([[User talk:Justinw303|talk]]): Unexplained deletion of sourced content. ([[WP:TW|TW]])
2013-05-07T16:56:17+00:00,553983720,553980123,0,AnomieBOT,Austrian school of economics,"Rescuing orphaned refs (""Meijer 1995"" from rev 553931390)"
2015-03-16T12:33:31+00:00,651625459,651243857,0,24.255.254.75,Austrian school of economics,/* Opportunity cost */
2008-01-18T03:50:17+00:00,185137246,185137030,0,68.63.187.135,Austrian school of economics,/* History */
2021-02-04T20:18:52+00:00,1004868157,1001730571,0,172.112.222.132,Austrian school of economics,"I added clarity on the Austrian position, that they do not oppose all economic mathematizing. They support it when setting prices and when looking at microeconomic activity within-context, but are skeptical of building overarching theoretical models due to ever-changing demand, technology, culture, etc. and the potential they create for malfeasant government policy."
2013-03-05T06:31:20+00:00,542166429,542140240,0,Lawrencekhoo,Austrian school of economics,Reverted 1 edit by [[Special:Contributions/WeOweItToOurselves|WeOweItToOurselves]] ([[User talk:WeOweItToOurselves|talk]]): Rv sockpuppet. ([[WP:TW|TW]])
2010-05-31T01:25:49+00:00,365128947,364966004,0,DumbBOT,Austrian school of economics,removing a protection template from a non-protected page ([[User:DumbBOT/Protection|info]])
2019-06-10T10:43:49+00:00,901207266,900262889,0,2001:8003:4163:AD00:906C:613C:E295:5154,Austrian school of economics,/* External links */ Henry Hazlitt
2011-11-22T06:35:24+00:00,461897650,461897556,0,Lawrencekhoo,Austrian school of economics,split over long sentence
2017-11-11T17:27:57+00:00,809822334,808687623,0,Marcocapelle,Austrian school of economics,removed grandparent category of [[Category:Schools of economic thought]]
2018-04-07T16:44:36+00:00,835267440,832676340,0,Rjwilmsi,Austrian school of economics,"/* Business cycle theory */Journal cites, Added 1 doi to a journal cite"
2021-07-08T16:41:01+00:00,1032627317,1021888905,0,PohranicniStraze,Austrian school of economics,removed link(s) to deleted page(s) per [[WP:RED]]
2018-05-30T23:17:55+00:00,843710871,842595410,0,Srnec,Austrian school of economics,/* Business cycles */ cleanup
2008-09-15T15:45:46+00:00,238601799,238595154,0,Lawrencekhoo,Austrian school of economics,/* External links */
2015-08-03T22:01:20+00:00,674431886,671286998,0,18.62.10.147,Austrian school of economics,/* General criticisms */
2009-02-25T11:30:05+00:00,273170324,273170228,0,Alex Bakharev,Austrian school of economics,semi
2014-12-19T00:16:15+00:00,638712135,638375839,0,BattyBot,Austrian school of economics,fixed [[Help:CS1 errors#bad_date|CS1 errors: dates]] to meet [[MOS:DATEFORMAT]] (also [[WP:AWB/GF|General fixes]]) using [[Project:AWB|AWB]] (10518)
2015-10-25T06:27:02+00:00,687382783,687382479,0,Darx9url,Austrian school of economics,/* Methodology */ cite says few modern Austrians follow Mises
2010-07-22T13:18:06+00:00,374849143,374848254,0,Lawrencekhoo,Austrian school of economics,/* Contributions */
2015-07-13T18:12:12+00:00,671286998,670084908,0,Cyberbot II,Austrian school of economics,"Rescuing 1 sources, flagging 0 as dead, and archiving 8 sources. ([[en:WP:PEACHY|Peachy 2.0 (alpha 8)]])"
2015-09-18T00:09:50+00:00,681562354,681101118,0,2602:306:C5B4:E3D0:DDA2:FED9:E441:87D7,Austrian school of economics,undo addition of unsupported or unnecessary categories
2010-08-27T08:41:26+00:00,381273082,381272862,0,BigK HeX,Austrian school of economics,/* Criticism of mainstream practices */ wording
2019-09-07T11:40:34+00:00,914421625,914024570,0,Lawrencekhoo,Austrian school of economics,/* Methodology */
2016-09-10T03:33:19+00:00,738626062,737114240,0,Lawrencekhoo,Austrian school of economics,/* General criticisms */
2010-09-19T12:45:08+00:00,385714436,384809692,0,Ben Ben,Austrian school of economics,"[[:en:WP:CLEANER|WikiCleaner]] 0.99 - Category before last headline (AWB, PY, BOT) - Reference before punctuation (partial AWB) - Reference duplication (partial AWB) (Detection by [[Wikipedia:WCW]])"
2022-07-06T22:17:04+00:00,1096829369,1095939792,0,Ghangsta Guru,Austrian school of economics,
2014-02-23T02:55:23+00:00,596720150,596135142,0,86.26.71.41,Austrian school of economics,
2011-06-04T02:45:36+00:00,432456956,432232210,0,RafaelMinuesa,Austrian school of economics,/* Origins and etymology */  link to School of Salamanca
2014-05-01T21:43:41+00:00,606687750,603962117,0,Adn1990,Austrian school of economics,
2009-05-06T16:32:58+00:00,288294532,287813670,0,JEN9841,Austrian school of economics,cleared up ambiguous phrasing
2009-10-12T20:44:06+00:00,319492456,319375870,0,Dwchin,Austrian school of economics,"/* Criticism */ ""von Hayek"" was the first and only reference to Friedrich von Hayek. Put in a link so that it's not ""out of the blue""."
2011-02-18T17:12:11+00:00,414643788,414641535,0,Srich32977,Austrian school of economics,Undid revision 414641535 by [[Special:Contributions/Kiefer.Wolfowitz|Kiefer.Wolfowitz]] ([[User talk:Kiefer.Wolfowitz|talk]]) hardly fringe -- inappropriate category
2020-06-11T19:04:09+00:00,962035411,958163505,0,King of Hearts,Austrian school of economics,"""Austerian economics"" is a very obscure term; ""Economy of Austria"" is much more useful since ""Austrian economics"" redirects here"
2010-05-30T04:11:12+00:00,364966004,364960225,0,BigK HeX,Austrian school of economics,Undid revision 364960225 by [[Special:Contributions/CorruptCounterfeiters|CorruptCounterfeiters]] ([[User talk:CorruptCounterfeiters|talk]]) uncited editorializing
2017-09-27T17:34:58+00:00,802666291,797938543,0,Crosenthal1,Austrian school of economics,/* Influence */ (added George Mason University cite)
2010-07-29T22:31:55+00:00,376166571,375993150,0,John Quiggin,Austrian school of economics,/* Influence */ NPOV
2014-06-06T17:52:45+00:00,611849917,611704082,0,98.156.124.185,Austrian school of economics,
2008-04-20T18:28:15+00:00,206929197,206884864,0,RayBirks,Austrian school of economics,[[WP:UNDO|Undid]] revision 206884864 by [[Special:Contributions/121.216.128.149|121.216.128.149]] ([[User talk:121.216.128.149|talk]])
2010-06-17T17:34:41+00:00,368621663,368559396,0,Jonkerz,Austrian school of economics,caps
2011-09-04T16:14:56+00:00,448425008,448424865,0,EdJohnston,Austrian school of economics,Add pp-dispute template
2015-01-21T16:44:51+00:00,643538346,643534871,0,Wuerzele,Austrian school of economics,"/* Methodology */  copy edit jargon, simplify, remove editorializing 'significantly', avoid repetition of terms"
2022-01-30T17:13:43+00:00,1068889095,1068887794,0,Th78blue,Austrian school of economics,rm tag as RS are present
2018-06-27T20:36:52+00:00,847794941,847736599,0,205.173.24.4,Austrian school of economics,Added link to austrian business cycle theory
2011-06-01T07:20:54+00:00,431959992,431951518,0,Lawrencekhoo,Austrian school of economics,Reverted 1 edit by [[Special:Contributions/Byelf2007|Byelf2007]] ([[User talk:Byelf2007|talk]]): Read [[WP:BURDEN]]. ([[WP:TW|TW]])
2011-08-15T06:03:46+00:00,444926490,444926296,0,Lawrencekhoo,Austrian school of economics,/* Influence */ rm peacock term
2016-05-15T02:37:10+00:00,720316118,718960444,0,Plandu,Austrian school of economics,Disambiguated: [[Principles of Economics]] → [[Principles of Economics (Menger)]]
2008-03-10T18:50:52+00:00,197290223,197289771,0,63.116.68.58,Austrian school of economics,/* Analytical framework */
2006-09-09T12:42:31+00:00,74706764,74280962,0,Robertvan1,Austrian school of economics,"clean up and spellcheck Typos: adherance → adherence,  using [[WP:AWB|AWB]]"
2019-02-13T14:52:47+00:00,883140085,881413077,0,Krapulat,Austrian school of economics,/* Influence */ Ilustration
2017-01-20T09:53:23+00:00,761008648,760679070,0,82.0.26.2,Austrian school of economics,"""most economists"" is not consistent with the source"
2007-02-07T17:51:53+00:00,106357200,105416878,0,SmackBot,Austrian school of economics,Date/fix maintenance tags
2019-08-15T02:52:42+00:00,910877955,910877859,0,Гармонический Мир,Austrian school of economics,/* Fundamental tenets */
2010-10-06T20:22:45+00:00,389165827,389161446,0,Ravensfire,Austrian school of economics,"Undid revision 389161446 by [[Special:Contributions/Gwen Gale|Gwen Gale]] ([[User talk:Gwen Gale|talk]])See the talk page for why this is not considered a RS - not the site, the author; discuss before reverting"
2010-08-25T12:55:52+00:00,380907747,380325613,0,BigK HeX,Austrian school of economics,"/* Criticism of mainstream practices */ rewrite, accuracy, removing ""daily"" blogs"
2011-01-10T07:19:35+00:00,407030920,406656771,0,Ariel.,Austrian school of economics,"/* Inflation */ use logarithmic version of chart, kindly provided by the author of the original"
2008-06-16T03:03:09+00:00,219620858,219618856,0,Jdhunt,Austrian school of economics,/* History */
2018-10-24T16:23:53+00:00,865549985,865548945,0,129.7.106.20,Austrian school of economics,/* Methodology */
2010-10-11T15:58:26+00:00,390083469,390012143,0,Ravensfire,Austrian school of economics,/* See also */ Change capitalization to match article title
2007-03-15T03:29:54+00:00,115238208,115237999,0,201.255.128.6,Austrian school of economics,/* Economists affiliated with the Austrian School */
2022-07-01T09:30:49+00:00,1095939792,1095939640,0,Lawrencekhoo,Austrian school of economics,
2014-12-03T03:08:13+00:00,636409616,636408203,0,Danski14,Austrian school of economics,/* Split among contemporary Austrians */ walter block's views on hayek
2009-09-08T08:29:39+00:00,312553471,312130003,0,98.234.210.26,Austrian school of economics,/* Analytical framework */
2013-03-11T19:41:18+00:00,543479556,543477188,0,SPECIFICO,Austrian school of economics,"Soto mention does not add anything to the Rothbard attribution.  You could put this on Soto's article, but the information is already fully established with the Rothbard connection.  If you disagree, please use talk."
2011-12-21T08:03:56+00:00,466992936,466992848,0,Byelf2007,Austrian school of economics,better flow
2010-08-20T12:24:20+00:00,379949326,379947593,0,BigK HeX,Austrian school of economics,"Undid revision 379947593 by [[Special:Contributions/Budija|Budija]] ([[User talk:Budija|talk]]) sorry.  Unsourced edit is poorly written, and even with proper grammar doesn't seem logically applicable"
2020-12-26T23:42:07+00:00,996498255,992630391,0,Monkbot,Austrian school of economics,[[User:Monkbot/task 18|Task 18 (cosmetic)]]: eval 81 templates: hyphenate params (36×);
2006-08-21T17:24:52+00:00,70993042,70303748,0,Gay Cdn,Austrian school of economics,/* Major economists affiliated with the Austrian School */ deleted bolding on several names as no rational provided as to why those names should be bolded
2021-05-07T07:03:11+00:00,1021888905,1021545507,0,Ganbaruby,Austrian school of economics,unencyclopedic artwork; just use actual images of those people
2014-01-02T08:17:35+00:00,588784811,588784572,0,207.216.8.92,Austrian school of economics,
2018-07-24T07:32:07+00:00,851732771,851103131,0,Netoholic,Austrian school of economics,/* Empirical objections */ replace quote which fails verification
2015-09-07T14:44:26+00:00,679906734,679824362,0,209.197.171.90,Austrian school of economics,
2022-08-19T18:07:23+00:00,1105327540,1102460300,0,SamuelRiv,Austrian school of economics,"template all open refs and the remaining extra reading section (comment out unnecessary but valid external links in extra reading, like reviews, unless really deemed necessary by other editors"
2015-04-13T05:52:29+00:00,656230580,656230385,0,Elinruby,Austrian school of economics,edit wikilink to avoid redirect
2021-02-21T17:29:37+00:00,1008116661,1004868157,0,99.237.60.132,Austrian school of economics,/* Economic calculation problem */
2013-06-17T18:38:40+00:00,560333216,560332860,0,SPECIFICO,Austrian school of economics,/* First Wave */
2017-06-01T18:18:09+00:00,783350492,782581482,0,Miraclexix,Austrian school of economics,/* External links */
2006-05-17T15:36:25+00:00,53697132,51900620,0,Janey Dowerstruffel,Austrian school of economics,removed scare quotes
2013-01-11T06:20:53+00:00,532497362,532483376,0,AnomieBOT,Austrian school of economics,Dating maintenance tags: {{Cite check}}
2008-12-30T18:36:35+00:00,260926003,260922208,0,Albericht,Austrian school of economics,/* Contributions */  Added a name.
2020-04-02T04:35:52+00:00,948639662,946695558,0,BlueSingularity,Austrian school of economics,Updated link
2016-10-15T19:16:33+00:00,744517172,744418480,0,WeakTrain,Austrian school of economics,"/* General criticisms */ The critique is being too averse, not just noting that they are averse."
2019-07-05T02:58:44+00:00,904860107,904860083,0,Triggeredbytriggered,Austrian school of economics,"/* General criticism */ forgot ""they"""
2014-09-03T01:30:25+00:00,623941359,620172604,0,Dexbot,Austrian school of economics,Removing Link GA template ([[d:Wikidata:Development plan#Badges|handled by wikidata]])
2013-07-22T05:22:30+00:00,565285069,565234133,0,Srich32977,Austrian school of economics,/* External links */ Adding/removing external link(s)
2006-09-20T04:00:13+00:00,76725910,76023347,0,72.130.139.71,Austrian school of economics,minor - fixed formatting error
2006-09-25T19:55:53+00:00,77773506,76725910,0,62.47.221.12,Austrian school of economics,
2011-11-18T23:50:09+00:00,461354961,461037101,0,AnomieBOT,Austrian school of economics,"Rescuing orphaned refs (""Quiggin"" from rev 460372599)"
2007-06-23T13:45:17+00:00,140108863,140108725,0,139.168.108.208,Austrian school of economics,/* Economists affiliated with the Austrian School */
2011-10-06T07:20:46+00:00,454196984,454196364,0,Lawrencekhoo,Austrian school of economics,Discussion of Economic calculation problem is not exclusive to Austrian school
2011-09-06T22:12:06+00:00,448822404,448425008,0,Magioladitis,Austrian school of economics,[[WP:CHECKWIKI]] error fixes + [[WP:GENFIXES|general fixes]] using [[Project:AWB|AWB]] (7832)
2010-11-15T01:27:41+00:00,396818485,396465142,0,SmackBot,Austrian school of economics,Date maintenance tags and general fixes: build 562:
2017-03-20T15:23:44+00:00,771265554,771231482,0,Primefac,Austrian school of economics,rmv orphaned refs
2016-11-21T11:34:00+00:00,750711421,750711332,0,LahmacunKebab,Austrian school of economics,
2014-03-12T21:39:58+00:00,599346356,599333755,0,SPECIFICO,Austrian school of economics,"Undid revision 599333755 by [[Special:Contributions/69.65.212.81|69.65.212.81]] ([[User talk:69.65.212.81|talk]]) Actually, according to the cited source, the qualifier ""some"" is not stated.  Regardless of our own views, it does not say ""some"""
2011-08-19T20:15:34+00:00,445715185,445714846,0,Byelf2007,Austrian school of economics,"obviously monetary inflation is; there's no Austrian economist who thinks price-inflation (""inflation"" according to wikipedia) is ALWAYS the result of the central bank (and not technology or mass liquidation)"
2021-11-11T06:10:36+00:00,1054632588,1053357661,0,Th78blue,Austrian school of economics,/* See also */ Chicago school of economics (shared thought)
2016-05-27T00:42:15+00:00,722271890,720316118,0,Cydebot,Austrian school of economics,Robot - Moving category Heterodox economics to [[:Category:Schools of economic thought]] per [[WP:CFD|CFD]] at [[Wikipedia:Categories for discussion/Log/2016 May 3]].
2007-01-05T08:28:06+00:00,98605124,98300691,0,128.220.159.41,Austrian school of economics,/* History */
2012-06-14T20:56:46+00:00,497610861,497610626,0,Byelf2007,Austrian school of economics,context
2020-01-23T19:43:40+00:00,937236466,936352383,0,Davide King,Austrian school of economics,"/* Influence */ theoricians: [...] , --> such as [...] and"
2011-07-13T21:41:25+00:00,439328894,438790160,0,Byelf2007,Austrian school of economics,more precise
2013-02-19T16:50:04+00:00,539065989,538232015,0,Addshore,Austrian school of economics,"Uncontroversial removal of interwiki links, see [[Wikipedia:Wikidata]]"
2019-09-21T07:10:00+00:00,916901859,916405885,0,Lawrencekhoo,Austrian school of economics,"more relevant, Austrian economics  encompasses more than macroeconomics"
2020-06-24T01:31:20+00:00,964182266,964073359,0,InternetArchiveBot,Austrian school of economics,Rescuing 4 sources and tagging 0 as dead.) #IABot (v2.0.1
2006-06-16T02:58:53+00:00,58878506,58867996,0,72.181.106.20,Austrian school of economics,sv
2006-10-26T12:11:08+00:00,83828616,83759301,0,Intangible,Austrian school of economics,rv spam
2007-03-26T15:54:14+00:00,118021593,118018562,0,Ultramarine,Austrian school of economics,/* Critical */ another
2010-02-18T14:26:33+00:00,344818240,344762388,0,DumbBOT,Austrian school of economics,removing a protection template from a non-protected page ([[User:DumbBOT/Protection|info]])
2011-08-18T02:04:06+00:00,445434299,445433669,0,Helpful Pixie Bot,Austrian school of economics,Dated {{Citation needed}}. (Build p613)
2007-11-18T00:39:39+00:00,172184602,171258883,0,Nyopallo,Austrian school of economics,marked needed citations
2007-02-12T17:28:45+00:00,107599490,107586709,0,DavidCBryant,Austrian school of economics,[[WP:AES|←]]Undid revision 107586709 by [[Special:Contributions/128.163.110.72|128.163.110.72]] ([[User talk:128.163.110.72|talk]]) rvv.
2013-11-04T22:15:05+00:00,580219326,580218879,0,SPECIFICO,Austrian school of economics,Undid revision 580218879 by [[Special:Contributions/98.243.26.183|98.243.26.183]] This paragraph was challenged and confirmed RS by an RfC -- see the talk archives.
2020-06-26T19:16:24+00:00,964650690,964182266,0,SFBB,Austrian school of economics,/* Early 20th century */
2006-11-18T13:11:11+00:00,88613545,88261193,0,70.108.165.64,Austrian school of economics,/* Analytical framework */
2012-04-10T06:40:20+00:00,486576016,486575556,0,Byelf2007,Austrian school of economics,too specific for the lead
2007-01-26T06:17:29+00:00,103325997,102882303,0,202.89.181.179,Austrian school of economics,/* Major economists affiliated with the Austrian School */
2014-04-13T03:19:52+00:00,603962117,603450594,0,BattyBot,Austrian school of economics,fixed [[Help:CS1 errors#bad_date|CS1 errors: dates]] to meet [[MOS:DATEFORMAT]] (also [[WP:AWB/GF|General fixes]]) using [[Project:AWB|AWB]] (10069)
2020-05-22T06:48:17+00:00,958163505,958163291,0,Lawrencekhoo,Austrian school of economics,/* General criticism */
2011-03-31T19:51:45+00:00,421699422,421644423,0,Akldawgs,Austrian school of economics,/* Criticism of mainstream practices */ misspelling
2011-12-26T16:49:10+00:00,467774669,466992936,0,217.39.10.64,Austrian school of economics,/* Inflation */
2017-02-27T05:08:22+00:00,767654812,765287758,0,Brenont,Austrian school of economics,tidy up
2019-08-31T06:25:25+00:00,913303802,913303768,0,220.233.193.206,Austrian school of economics,/* Business cycles */
2020-08-30T01:44:35+00:00,975718081,975102762,0,Citation bot,Austrian school of economics,"Add: url, s2cid, author pars. 1-1. Removed parameters. Some additions/deletions were actually parameter name changes. | You can [[WP:UCB|use this bot]] yourself. [[WP:DBUG|Report bugs here]]. | Suggested by SemperIocundus | via #UCB_webform"
2006-12-16T03:26:25+00:00,94638918,94638673,0,201.255.165.249,Austrian school of economics,/* Seminal works */
2014-10-29T00:51:24+00:00,631542753,627370644,0,KaiserEricSJ,Austrian school of economics,
2017-08-07T10:28:14+00:00,794333246,793480517,0,Lawrencekhoo,Austrian school of economics,/* Split among contemporary Austrians */
2012-11-18T20:53:42+00:00,523728840,523004409,0,Magioladitis,Austrian school of economics,clean up using [[Project:AWB|AWB]] (8626)
2021-11-03T12:22:12+00:00,1053357661,1051598236,0,MariaLeonice,Austrian school of economics,
2021-04-24T13:58:32+00:00,1019633296,1019631349,0,North8000,Austrian school of economics,dial back far-reaching caption just added with image
2013-01-24T23:02:55+00:00,534731353,533768956,0,Alfy32,Austrian school of economics,/* See also */ added separation of money and state
2021-03-08T21:30:22+00:00,1011071675,1011070939,0,KarenJoyce,Austrian school of economics,UFM citation
2022-06-19T01:18:50+00:00,1093824606,1093823408,0,Lawrencekhoo,Austrian school of economics,/* General */
2009-08-15T01:26:13+00:00,308048836,307513797,0,SmackBot,Austrian school of economics,Date maintenance tags and general  fixes
2011-03-21T19:11:00+00:00,420015127,419347657,0,JonHarder,Austrian school of economics,/* External links */ Remove link that duplicates internal link in lead section (([[WP:ELNO]] #19).
2020-10-27T18:47:30+00:00,985748058,984762583,0,LearnMore,Austrian school of economics,General proofreading.
2007-02-03T21:40:00+00:00,105416878,105319493,0,DavidCBryant,Austrian school of economics,"/* Economists affiliated with the Austrian School */ Removed ""Michael Zutt"", an apparently fictitious person. 170 Google hits on ""Michael Zutt"" economics; the first 50 of those echo this article."
2016-01-21T17:52:56+00:00,700962394,696516197,0,Jgg0005,Austrian school of economics,/* Methodology */  typo
2008-10-29T22:19:03+00:00,248494583,248490724,0,205.175.121.230,Austrian school of economics,/* Specific contributions */
2008-08-07T14:12:32+00:00,230408442,230273927,0,JLMadrigal,Austrian school of economics,versus the [[minarchist]] [[Chicago School]]
2009-12-10T20:59:23+00:00,330935013,330486313,0,Scshute,Austrian school of economics,/* Contributions */
2011-07-27T12:20:06+00:00,441697193,441655164,0,Reaper Eternal,Austrian school of economics,remove protection template
2011-12-13T05:51:34+00:00,465589569,465586601,0,Jrockets,Austrian school of economics,limiting context of models to current models because of their dependence on the magnitude put in utility
2016-06-11T01:31:04+00:00,724718912,724609071,0,GreenC bot,Austrian school of economics,[[User:Green Cardamom/WaybackMedic|WaybackMedic]]
2009-03-06T15:48:21+00:00,275411213,273170324,0,Cocytus,Austrian school of economics,"[[WP:AWB/T|Typo fixing]], typos fixed: philisophical → philosophical using [[Project:AutoWikiBrowser|AWB]]"
2020-08-26T19:12:27+00:00,975102762,975102438,0,Blablubbs,Austrian school of economics,Reverted edits by [[Special:Contributions/2601:408:8000:C2B:8C15:5584:66AD:B34|2601:408:8000:C2B:8C15:5584:66AD:B34]] ([[User talk:2601:408:8000:C2B:8C15:5584:66AD:B34|talk]]) to last revision by 2601:408:8000:C2B:8C15:5584:66AD:B34. Rv unsourced personal commentary/[[WP:OR|original research]] ([[WP:HG|HG]]) (3.4.10)
2009-06-26T08:25:51+00:00,298714050,298660481,0,Vision Thing,Austrian school of economics,adding Schumpeter back as a member
2018-01-05T14:21:18+00:00,818773651,818035264,0,Lawrencekhoo,Austrian school of economics,/* top */
2015-10-05T12:30:29+00:00,684236662,684075831,0,Mdotley,Austrian school of economics,/* Methodology */ grammar fix; add {PDFlink} and page titles as link text; convert bare URL with data to {cite web}
2018-05-16T18:29:54+00:00,841583210,839189900,0,82.21.208.45,Austrian school of economics,
2014-09-15T20:07:44+00:00,625712259,625625673,0,Albany NY,Austrian school of economics,/* top */ removed incorrect comma
2013-01-18T23:45:42+00:00,533768956,533752955,0,SPECIFICO,Austrian school of economics,/* Assertions */ Removing unsourced content and conforming text to sources cited. Removed scare quotes and weasels
2017-02-13T16:14:29+00:00,765287758,764313818,0,Searchinit,Austrian school of economics,/* Fundamental tenets */
2009-10-28T20:49:46+00:00,322604992,319492456,0,Almabot,Austrian school of economics,robot Adding: [[ast:Escuela austríaca]]
2016-11-11T14:58:40+00:00,748972805,748698463,0,GreenC,Austrian school of economics,Fix url error in cite template using [[Project:AWB|AWB]]
2021-08-18T15:17:44+00:00,1039412399,1039412302,0,Davide King,Austrian school of economics,/* Split among contemporary Austrians */ ce
2020-04-21T21:01:14+00:00,952357291,952351127,0,Omnibus,Austrian school of economics,"The previous sentence says it is considered un-heterodox, and then this one said ""although it is considered heterodox""... removed the error"
2012-08-03T03:18:44+00:00,505521203,505453227,0,Tbhotch,Austrian school of economics,Removing a protection template from a non-protected page
2013-01-31T16:07:46+00:00,535875668,535870500,0,SPECIFICO,Austrian school of economics,/* Inflation */ Adding Prof. Richard Timberlake's criticism of Austrian inflation definition
2013-08-09T02:33:43+00:00,567764563,567716053,0,SPECIFICO,Austrian school of economics,/* Opportunity cost */ Delete text sourced to magazine glossary.  Needs better RS for discussion of fundamental economic concept
2021-09-09T21:55:15+00:00,1043391405,1042237691,0,136.36.81.189,Austrian school of economics,/* Economic calculation problem */
2008-12-14T05:12:29+00:00,257844887,257844817,0,MastCell,Austrian school of economics,{{pp-semi-sock}}
2010-06-23T01:12:18+00:00,369652514,369649503,0,Lawrencekhoo,Austrian school of economics,"edit lead, for grammar, shorten"
2012-08-14T09:41:42+00:00,507347061,507346954,0,Deryck Chan,Austrian school of economics,+protection template
2012-05-07T01:35:13+00:00,491103302,491102972,0,Byelf2007,Austrian school of economics,general cleanup
2022-10-15T18:28:58+00:00,1116268641,1116268371,0,Derrlf,Austrian school of economics,
2011-09-25T02:41:04+00:00,452293098,452292290,0,Srich32977,Austrian school of economics,Undid revision 452292290 by [[Special:Contributions/Somedifferentstuff|Somedifferentstuff]] ([[User talk:Somedifferentstuff|talk]])provide source
2008-06-23T22:40:50+00:00,221300622,220857264,0,99.162.230.64,Austrian school of economics,
2009-06-20T10:08:09+00:00,297523811,297523679,0,Lawrencekhoo,Austrian school of economics,fixing bad KiK edit
2006-08-07T23:04:08+00:00,68286388,68227643,0,Cohaerens,Austrian school of economics,
2016-08-17T13:51:22+00:00,734913480,734913341,0,Lawrencekhoo,Austrian school of economics,/* Business cycle theory */
2019-12-18T13:55:35+00:00,931366286,928610179,0,InternetArchiveBot,Austrian school of economics,Bluelinking 2 books for [[WP:V|verifiability]].) #IABot (v2.1alpha3
2022-05-19T05:36:16+00:00,1088625206,1088444116,0,Lawrencekhoo,Austrian school of economics,/* top */ adding citation
2016-04-28T03:36:36+00:00,717504832,717504317,0,Srich32977,Austrian school of economics,Reverted 1 edit by [[Special:Contributions/172.58.184.81|172.58.184.81]] ([[User talk:172.58.184.81|talk]]): Hardly. ([[WP:TW|TW]])
2010-05-01T05:34:17+00:00,359391524,359391417,0,$atan's$pawn,Austrian school of economics,/* Criticism of mainstream practices */  Image no longer links through
2007-04-06T03:56:10+00:00,120656842,119971329,0,FargoWells,Austrian school of economics,
2016-04-23T13:26:16+00:00,716726998,716726258,0,Lawrencekhoo,Austrian school of economics,/* Empirical objections */
2008-08-31T08:42:31+00:00,235344651,235198278,0,TruthComesFromAGunBoat,Austrian school of economics,ABCT added
2015-04-26T15:43:45+00:00,659307256,658993639,0,120.147.33.209,Austrian school of economics,/* Inflation */
2010-05-06T00:31:11+00:00,360413672,360410068,0,Jonkerz,Austrian school of economics,/* Business cycles */ ext link to periodical cite ref
2017-05-27T21:10:49+00:00,782581482,781731294,0,Magic links bot,Austrian school of economics,Replace [[Help:Magic links|magic links]] with templates per [[Special:Permalink/772743896#Future of magic links|local RfC]] and [[:mw:Requests for comment/Future of magic links|MediaWiki RfC]]
2021-10-02T06:51:06+00:00,1047715698,1047151226,0,Lawrencekhoo,Austrian school of economics,/* top */
2012-09-01T21:20:49+00:00,510336107,510335771,0,Byelf2007,Austrian school of economics,this is a huge change--please use talk first
2012-12-31T03:29:21+00:00,530552662,530550915,0,Lawrencekhoo,Austrian school of economics,Reverted to revision 529315263 by SPECIFICO: rv sock of banned user. ([[WP:TW|TW]])
2020-09-05T12:08:40+00:00,976849459,976811245,0,Bonewah,Austrian school of economics,Reverted to revision 975718081 by [[Special:Contributions/Citation bot|Citation bot]] ([[User talk:Citation bot|talk]]): Take it to talk ([[WP:TW|TW]])
2009-12-04T02:11:04+00:00,329590242,329589326,0,Corduroy1982,Austrian school of economics,/* External links */
2006-08-12T08:10:19+00:00,69174976,68778137,0,Ghewgill,Austrian school of economics,it's -> its
2015-03-01T16:45:51+00:00,649396499,648165386,0,Mike V,Austrian school of economics,Reverted edits by [[Special:Contribs/TakeItUpTheGreekEconomy|TakeItUpTheGreekEconomy]] ([[User talk:TakeItUpTheGreekEconomy|talk]]) to last version by Rjwilmsi
2010-06-19T01:16:06+00:00,368904229,368799695,0,Skyerise,Austrian school of economics,/* Inter-War Period */ heading caps
2011-05-09T15:50:55+00:00,428265114,428264054,0,Kazvorpal,Austrian school of economics,"/* Legacy */ It's red because he's Steven. Was tempted to add free banking economists Selgin and Timberlake, but they've both expressed doubts to me as to whether modern economics can be called Austrian at all"
2013-09-03T02:56:48+00:00,571323304,571249288,0,SPECIFICO,Austrian school of economics,/* Split among contemporary Austrians */ ce
2017-11-25T21:26:41+00:00,812076187,809822334,0,JimD,Austrian school of economics,Link to Nobel Prize in Economics
2010-07-24T21:47:27+00:00,375269922,375258958,0,Cretog8,Austrian school of economics,wikilink nobel
2011-02-14T05:25:44+00:00,413828005,412485090,0,WikitanvirBot,Austrian school of economics,r2.7.1) (robot Modifying: [[fa:مکتب اتریش]]
2009-10-04T10:43:25+00:00,317817241,317581084,0,WarningFinancialTsunamiAhead,Austrian school of economics,Edits appear reasonable
2013-03-01T02:22:38+00:00,541394482,539065989,0,DumbBOT,Austrian school of economics,removing a protection template from a non-protected page ([[User:DumbBOT/Protection|info]])
2011-10-20T20:39:12+00:00,456574148,456328017,0,Byelf2007,Austrian school of economics,
2010-03-27T06:20:37+00:00,352294078,352292844,0,BigK HeX,Austrian school of economics,Austrian economics
2016-08-22T06:27:09+00:00,735656779,735651782,0,Jmcgnh,Austrian school of economics,"Reverted [[WP:AGF|good faith]] edits by 59.167.67.161: This addition of yours does not fit here, as the first paragraph under ""Contributions"" subheading ""Inflation"". Not sure where it belongs, but definitely not right here. ([[WP:TW|TW]])"
2009-09-19T04:21:31+00:00,314856024,314846034,0,Lawrencekhoo,Austrian school of economics,Reverted 1 edit by [[Special:Contributions/81.99.118.248|81.99.118.248]]; OR commentary. ([[WP:TW|TW]])
2008-05-12T14:47:02+00:00,211878796,211855316,0,Lawrencekhoo,Austrian school of economics,
2007-08-06T02:20:00+00:00,149458043,149450523,0,RafaelG,Austrian school of economics,/* Critical */ this page that I removed does not represent a serius criticism of austrian economics
2008-01-11T02:02:20+00:00,183540092,183509563,0,Childhoodsend,Austrian school of economics,[[WP:UNDO|Undid]] revision 183503429 by [[Special:Contributions/Zenwhat|Zenwhat]] ([[User talk:Zenwhat|talk]]) pov'ed edits
2006-10-18T21:48:03+00:00,82293228,81324789,0,Nikodemos,Austrian school of economics,some links
2010-05-23T10:13:24+00:00,363697514,363006567,0,Justinc,Austrian school of economics,/* Criticism of mainstream practices */ link Wynne Godley
2009-08-17T01:49:50+00:00,308400279,308400270,0,ClueBot,B. A. Santamaria,"Reverting possible vandalism by [[Special:Contributions/Billy223069er|Billy223069er]] to version by Mr Stephen. False positive? [[User:ClueBot/FalsePositives|Report it]]. Thanks, [[User:ClueBot|ClueBot]]. (756158) (Bot)"
2022-05-20T18:02:19+00:00,1088894534,1088877854,0,AnomieBOT,B. A. Santamaria,Dating maintenance tags: {{Citation needed}}
2008-12-16T09:51:46+00:00,258328940,258328653,0,203.217.68.33,B. A. Santamaria,
2012-03-25T20:52:45+00:00,483903221,456869094,0,Helpful Pixie Bot,B. A. Santamaria,ISBNs (Build J/)
2020-07-26T14:59:01+00:00,969620729,957684871,0,Marisauna,B. A. Santamaria,
2018-08-22T07:35:59+00:00,856004640,835455105,0,Blainster,B. A. Santamaria,"/* Catholic Worker movements */ decap communism, capitalism, per WP MOS"
2006-07-26T00:18:28+00:00,65863700,57825096,0,SFrank85,Bad Boy,
2017-02-19T00:11:10+00:00,766228227,762637616,0,Lgggioia,Bad Boy,/* Songs */
2010-04-02T07:28:37+00:00,353507598,230065596,0,Alan Liefting,Baileys,tweaks
2011-12-02T17:45:55+00:00,463692496,432867198,0,Vaulter,Baileys,[[WP:AES|←]]Redirected page to [[Baileys Irish Cream]]
2016-09-15T20:48:14+00:00,739621203,728790459,0,Lambiam,Bank run,mv wikilink to where you'd expect it
2019-06-27T02:33:37+00:00,903658309,903655195,0,CommonKnowledgeCreator,Bank run,/* External links */ Added financial crises navbox
2007-01-09T16:29:39+00:00,99579837,98839400,0,Mardus,Bank run,"/* Prevention */ I might have added a remotely relevant bit of info, but I wanted to highlight that the paragraph's first sentence lacks a reliable source /report, yes, but for which years?"
2019-10-09T23:50:24+00:00,920465777,915473601,0,Bob the Wikipedian,Bank run,/* Depictions in fiction */ include setting for context
2021-05-07T14:52:50+00:00,1021941640,1021694579,0,Neuroforever,Bank run,/* History */ Added an image.
2018-04-03T04:40:01+00:00,833950454,832171119,0,KolbertBot,Bank run,Bot: [[User:KolbertBot|HTTP→HTTPS]] (v485)
2009-11-30T18:44:37+00:00,328849064,328833142,0,Eubulides,Bank run,[[WP:UNDO|Undid]] revision 328833142 by [[Special:Contributions/24.175.73.42|24.175.73.42]] ([[User talk:24.175.73.42|talk]]) Revert unsourced opinion.
2015-06-29T19:17:44+00:00,669226029,669218784,0,Enthusiast01,Bank run,
2010-01-10T19:43:07+00:00,337049047,336941706,0,Jamesinderbyshire,Balti (food),/* Origins of the word balti */ He does and no reason was given for deleting this and it seems fairly interesting and a reasonably sound source - see talk page
2006-09-16T22:37:55+00:00,76125132,72451235,0,Broccoli,Bank run,+zh:
2006-07-20T21:48:15+00:00,64926959,64293227,0,200.85.47.22,Bank run,/* See also */
2009-01-01T06:16:51+00:00,261226344,261226250,0,Eubulides,Bank run,We don't need two photos of the same bank run. Keep the better of the two.
2020-02-24T09:05:17+00:00,942379647,942379558,0,Kwamikagami,Balti (food),/* Origin and etymology */
2007-12-29T18:29:15+00:00,180831303,180331964,0,PixelBot,Bank run,robot  Adding: [[vi:Bank run]]
2006-06-13T15:59:14+00:00,58409118,58395829,0,Colonies Chris,Bank run,"links, formatting"
2020-09-10T03:56:02+00:00,977650773,976206031,0,NateNate60,Bank run,/* History */
2006-05-26T09:09:51+00:00,55222953,55222538,0,Pydos,Bank run,/* History */
2017-06-22T19:13:06+00:00,786986990,784740060,0,LilHelpa,Bank run,"/* History */clean up, [[WP:AWB/T|typo(s) fixed]]: City-wide → Citywide using [[Project:AWB|AWB]]"
2013-09-06T15:49:17+00:00,571794109,570864663,0,TubularWorld,Bank run,fix issue with |format needing |url
2019-04-19T18:13:00+00:00,893197847,889398857,0,Gazamp,Bank run,/* External links */  Added [[Portal:Banks]]
2007-01-29T18:15:29+00:00,104133328,99579837,0,Ellsworth,Bank run,"/* In fiction */ IAWL - Baileys owned a B&L, not a bank"
2021-11-24T21:39:51+00:00,1057008212,1056862314,0,Rlink2,Bank run,"/* Systemic banking crisis */archive link repair, may include: archive.* -> archive.today, http->https for ghostarchive.org and archive.org, and fixing refs for IABot [[phab:T291704]]"
2017-01-31T16:08:31+00:00,762948887,762948822,0,Home Lander,Bank run,Revert to revision 762240808 dated 2017-01-27 15:32:02 by 2607:FCC8:9008:7E00:2095:5748:C67E:2287 using [[:en:Wikipedia:Tools/Navigation_popups|popups]]
2011-04-19T12:58:22+00:00,424850119,416979722,0,RatnimSnave,Bank run,Removed link to disambiguation page [[WP:DPWL]]
2011-03-03T22:23:30+00:00,416979722,413120546,0,Cherkash,Bank run,"clean up, typos fixed: evalution → evaluation using [[Project:AWB|AWB]]"
2006-12-04T19:52:41+00:00,92056623,88688422,0,205.237.168.58,Bank run,
2014-12-06T18:00:17+00:00,636910179,636729480,0,K7L,Bank run,Not a [[WP:RS|reliable source]]. The comparison chart is [[WP:POV|skewed as an opinion piece]] in favour of the large branch banks and much of the piece [[WP:CIRCULAR|itself cites Wikipedia]] to support its opinions.
2011-01-18T16:19:10+00:00,408607268,408439397,0,Kcbryantuk,Bank run,/* Individual banks */
2015-01-29T07:04:55+00:00,644666917,636910179,0,Citobun,Bank run,/* Prevention and mitigation */ added photo
2020-12-30T02:07:09+00:00,997114590,985513642,0,Monkbot,Bank run,[[User:Monkbot/task 18|Task 18 (cosmetic)]]: eval 25 templates: hyphenate params (6×); del |ref=harv (1×);
2011-09-19T17:11:10+00:00,451356884,450869733,0,166.248.34.54,Bank run,/* History */
2012-03-05T01:17:02+00:00,480245114,479511380,0,John M Baker,Bank run,Correct misspelling
2020-10-26T11:36:56+00:00,985513642,985511424,0,SPECIFICO,Bank run,Undid revision 985511424 by [[Special:Contributions/2A00:23C4:7710:7000:399E:31BC:7B19:B4FC|2A00:23C4:7710:7000:399E:31BC:7B19:B4FC]] ([[User talk:2A00:23C4:7710:7000:399E:31BC:7B19:B4FC|talk]]) Removing unsourced content
2011-08-03T14:06:29+00:00,442847147,442846546,0,AnomieBOT,Bank run,Dating maintenance tags: {{Cn}}
2017-12-19T11:31:22+00:00,816117190,816029748,0,Rose Abrams,Bank run,Thanks [[User:DPL bot|DPL bot]] for noticing me linking a disamb!!
2020-01-24T14:06:09+00:00,937354785,937354766,0,CAPTAIN RAJU,Bank run,Reverted edits by [[Special:Contributions/2A00:23C5:1C18:A000:3C13:1FB4:99B8:816F|2A00:23C5:1C18:A000:3C13:1FB4:99B8:816F]] ([[User talk:2A00:23C5:1C18:A000:3C13:1FB4:99B8:816F|talk]]) ([[WP:HG|HG]]) (3.4.9)
2018-06-07T11:05:39+00:00,844818508,836366451,0,J 1982,Bank run,/* Systemic banking crisis */
2013-12-09T01:27:48+00:00,585212468,582571156,0,Omnipaedista,Bank run,per [[WP:APPENDIX]]
2009-09-19T05:42:16+00:00,314864049,314863853,0,Eubulides,Bank run,"/* Individual banks */ Remove unnecessary ""at all""."
2010-05-13T22:10:25+00:00,361974621,361970906,0,Cretog8,Bank run,Undid revision 361970906 by [[Special:Contributions/156.26.96.156|156.26.96.156]] ([[User talk:156.26.96.156|talk]])
2022-07-12T13:55:54+00:00,1097752647,1097752628,0,Ingenuity,Bank run,Reverted edits by [[Special:Contributions/2001:D08:2183:FE71:1:0:67F4:F080|2001:D08:2183:FE71:1:0:67F4:F080]] ([[User talk:2001:D08:2183:FE71:1:0:67F4:F080|talk]]) ([[User:Ingenuity/AntiVandal|AV]])
2008-05-06T20:27:15+00:00,210648196,210630770,0,Hawkeye7,Battle of Messines (1917),[[WP:UNDO|Undid]] revision 210630770 by [[Special:Contributions/92.2.30.39|92.2.30.39]] ([[User talk:92.2.30.39|talk]])
2016-04-20T22:36:25+00:00,716290691,716290161,0,Keith-264,Battle of Messines (1917),
2014-04-29T09:24:18+00:00,606303855,604779143,0,Lotje,Billboard,"+file, Notable billboards section"
2018-08-19T10:56:39+00:00,855582940,850840624,0,PaleoNeonate,Billboard,rm refspam
2010-03-15T15:28:31+00:00,350016678,350016671,0,ClueBot,Bioinformatics,"Reverting possible vandalism by [[Special:Contributions/Garvind95|Garvind95]] to version by Xqbot. False positive? [[User:ClueBot/FalsePositives|Report it]]. Thanks, [[User:ClueBot|ClueBot]]. (564274) (Bot)"
2018-08-09T14:48:25+00:00,854185950,854185291,0,My very best wishes,Bioinformatics,more neutral wording
2022-04-16T03:05:07+00:00,1082950526,1082945886,0,Johnj1995,Biological agent,Undid revision 1082945886 by [[Special:Contributions/Drssurya|Drssurya]] ([[User talk:Drssurya|talk]]) Unsourced
2017-08-26T04:15:19+00:00,797295737,797294675,0,DocWatson42,Biological warfare,/* History */ Performed minor cleanup.
2009-01-21T16:49:01+00:00,265510906,252912305,0,VolkovBot,Biological agent,robot  Adding: [[uk:Біологічні агенти]]
2021-08-12T21:50:37+00:00,1038492357,1038488517,0,Professor alacarte,Biological warfare,/* Modern history */ another 'permanent dead link' miraculously revived
2008-03-14T01:12:00+00:00,198095954,198038068,0,74.237.245.223,Black flight,/* Inner city home value appreciation */
2012-07-14T10:23:12+00:00,502206758,492120793,0,114.198.36.195,"Blackheath, New South Wales",Added distance from Lithgow in main description
2014-07-18T14:08:38+00:00,617456411,610930859,0,81.144.34.196,Blitz!,
2021-04-12T22:19:00+00:00,1017464525,973487179,0,162.208.168.92,Blitz!,m
2022-09-29T20:11:00+00:00,1113109863,1109016497,0,Bearcat,Bloody Sunday (film),recat
2011-11-20T00:26:15+00:00,461510957,461510025,0,TheOldJacobite,Bloody Sunday (film),/* Responses */ ---Minor fixes.
2015-01-30T11:06:17+00:00,644831949,632555409,0,DinosaursLoveExistence,Boilermaker,/* References */ Remove category
2009-10-05T21:27:35+00:00,318129140,318129036,0,75.13.34.15,Boilermaker,/* Boilermaking */
2021-09-14T11:51:36+00:00,1044275293,1044273768,0,MrOllie,Boilermaker,Reverted 1 edit by [[Special:Contributions/202.67.89.228|202.67.89.228]] ([[User talk:202.67.89.228|talk]]) to last revision by The Eloquent Peasant
2022-02-02T02:14:50+00:00,1069386433,1068179243,0,Rlink2,"Bromelton, Queensland",/* History */Adding web.archive.org links for citations with url-status=live [[Category:CS1_maint:_url-status]]
2014-09-24T11:28:35+00:00,626884255,626884230,0,Frosty,Boilermaker,Reverted edits by [[Special:Contributions/190.213.17.7|190.213.17.7]] ([[User talk:190.213.17.7|talk]]) ([[WP:HG|HG]])
2021-05-15T13:50:22+00:00,1023276601,1023247159,0,McKnight Buchanan,Business cycle,a rise in inflation
2007-10-04T18:56:51+00:00,162298048,158713710,0,HorsePunchKid,Business cycle,Reverted edits by [[Special:Contributions/91.4.73.188|91.4.73.188]] ([[User talk:91.4.73.188|talk]]) to last version by Twp
2008-07-15T00:52:52+00:00,225710367,223730215,0,Bunnyhop11,Business cycle,
2017-04-05T01:03:51+00:00,773889493,772008130,0,Unreal7,Business cycle,Filled in 1 bare reference(s) with [[:en:WP:REFILL|reFill]] ()
2010-01-19T02:51:25+00:00,338678143,337675436,0,Xqbot,Bảo Đại,robot Modifying: [[ko:바오다이]]
2017-07-21T14:37:42+00:00,791636563,788415649,0,InternetArchiveBot,"Blackheath, New South Wales",Rescuing 1 sources and tagging 0 as dead. #IABot (v1.4.2)
2022-08-01T03:05:50+00:00,1101645688,1098932483,0,Aithus,Bảo Đại,"/* Mistresses */ remove an unsourced statement that, incidentally, doesn't appear in Empress [[Nam Phương]] article"
2016-04-15T06:22:47+00:00,715347046,715347042,0,ClueBot NG,Bảo Đại,"Reverting possible vandalism by [[Special:Contribs/27.3.226.86|27.3.226.86]] to version by Hmains. [[WP:CBFP|Report False Positive?]] Thanks, [[WP:CBNG|ClueBot NG]]. (2623150) (Bot)"
2013-08-16T09:41:32+00:00,568774456,567980046,0,Yobot,Bảo Đại,/* Photos of Bảo Đại's summer palaces */Remove unicode control characters (CHECKWIKI error 16) using [[Project:AWB|AWB]] (9427)
2019-09-15T11:23:39+00:00,915800175,914258941,0,Monkbot,Campus of Iowa State University,[[User:Monkbot/task 16: remove replace deprecated dead-url params|Task 16]]: replaced (11×) / removed (0×) deprecated |dead-url= and |deadurl= with |url-status=;
2017-07-29T22:22:44+00:00,792972215,786384143,0,InternetArchiveBot,Campus of Iowa State University,Rescuing 8 sources and tagging 0 as dead. #IABot (v1.5beta)
2022-03-14T21:14:50+00:00,1077167415,1077166956,0,PizzaKing13,Carlos Fitzcarrald,
2021-08-02T05:15:24+00:00,1036694326,1028242803,0,2003:C6:FF03:5D00:99E1:92F3:F9C:8E7C,Carlos Fitzcarrald,/* Rubber baron */
2008-05-17T15:05:45+00:00,213049678,210063126,0,Ninetyone,Central bank,random dash
2018-06-16T03:03:51+00:00,846071229,846069016,0,Ravensfire,Central bank,Reverted to revision 844826923 by [[Special:Contributions/4EverStudent|4EverStudent]] ([[User talk:4EverStudent|talk]]): Version before usual conspiracy bunk added. ([[WP:TW|TW]])
2016-03-08T11:21:57+00:00,708954882,701230162,0,Vinícius94,Central bank,/* Policy instruments */
2017-07-15T11:40:12+00:00,790685776,789277584,0,SourceOhWatch (SrotahaUvacha),Central bank,/* Origins */ Vocab edit
2018-03-03T01:55:03+00:00,828520529,828520504,0,ClueBot NG,Central bank,"Reverting possible vandalism by [[Special:Contribs/2600:1:F451:F523:18C5:4699:1581:D6C4|2600:1:F451:F523:18C5:4699:1581:D6C4]] to version by Ravichandar84. [[WP:CBFP|Report False Positive?]] Thanks, [[WP:CBNG|ClueBot NG]]. (3304575) (Bot)"
2016-12-13T20:19:49+00:00,754655918,754225922,0,Hocimi,Central bank,added [[Category:Economic history of the Dutch Republic]] using [[WP:HC|HotCat]]
2015-01-13T02:06:49+00:00,642245765,641987831,0,Ballofstring,Central bank,Copy edit and tidy up
2012-11-24T11:50:46+00:00,524634343,520266196,0,58.8.205.194,CentralWorld,/* Restaurants and eateries */
2011-10-02T01:09:19+00:00,453456344,451840254,0,Bbank1,CentralWorld,/* Key tenants */
2016-04-22T04:54:11+00:00,716518803,714225902,0,Wpcpey,Chatham Road,
2015-07-22T02:26:33+00:00,672518343,666115362,0,Davidcannon,Chatham Road,bypassing redirect using [[Project:AWB|AWB]]
2022-07-16T15:33:11+00:00,1098591849,1095367616,0,Jack is really cool,CentralWorld,"Changed a few words, minor grammatical edits"
2019-09-15T21:48:07+00:00,915896147,915744831,0,Monkbot,Central bank,/* Bank of England */[[User:Monkbot/task 16: remove replace deprecated dead-url params|Task 16]]: replaced (1×) / removed (0×) deprecated |dead-url= and |deadurl= with |url-status=;
2017-07-22T04:03:57+00:00,791731880,789997025,0,Ajf773,CentralWorld,
2018-10-07T15:25:01+00:00,862918588,862918518,0,Entranced98,Chuck E. Cheese,/* Menu items */
2011-11-14T02:17:31+00:00,460541003,460534535,0,Xenophrenic,Chuck E. Cheese,Undid revision 460534535 by [[Special:Contributions/67.230.61.26|67.230.61.26]] ([[User talk:67.230.61.26|talk]]); fixed
2011-04-07T10:15:51+00:00,422836092,420148866,0,59.182.49.145,"Connaught Place, New Delhi",
2019-12-29T14:05:53+00:00,933014583,932971363,0,Fylindfotberserk,"Connaught Place, New Delhi",Filled in 1 bare reference(s) with reFill 2
2022-06-04T22:57:39+00:00,1091541302,1089895797,0,FrescoBot,Cooperative education,Bot: [[User:FrescoBot/Links|link syntax]] and minor changes
2012-12-24T22:58:15+00:00,529656698,529656556,0,173.49.144.100,Cooperative education,/* Post-Cincinnati evolutions */
2010-04-15T07:41:29+00:00,356129778,356097622,0,JAnDbot,Counterfeit,"robot Adding: lt Removing: ja, pt, zh"
2014-08-30T05:09:29+00:00,623405615,615975320,0,80.44.179.111,Counterfeit,/* See also */
2014-08-12T21:01:15+00:00,620967713,613127806,0,Reify-tech,Crank (person),Copyedit cleanups; +Wikilinks
2010-08-03T14:21:52+00:00,376943131,372085422,0,98.144.2.70,Crank (person),
2015-12-03T03:33:22+00:00,693528135,675522076,0,Randy Kryn,Crazy Love (1987 film),"italicize title, italics add"
2012-01-17T14:36:30+00:00,471868843,443684761,0,192.114.182.2,Crazy Love (1987 film),
2011-04-18T21:43:39+00:00,424753628,323080290,0,Henxter,Crazy Love (1987 film),/* Cast */
2009-05-14T11:41:00+00:00,289861925,289852475,0,Lawrencekhoo,Credit crunch,[[WP:RBK|Reverted]] edits by [[Special:Contributions/Relemar|Relemar]] ([[User talk:Relemar|talk]]) to last version by William Avery
2021-09-28T16:24:10+00:00,1047023297,1015770816,0,Lagelander,Credit crunch,
2007-07-27T05:27:40+00:00,147390106,109836841,0,Maktimothy,Credit crunch,"[[WP:AES|←]]Created page with 'A ""credit crunch"" is a [[recession]]ary period in a [[debt-based monetary system]] where growth in debt has slowed and subsequently causes a drying up of [[liquidit...'"
2012-07-05T14:39:11+00:00,500802969,500366086,0,94.193.234.10,Credit crunch,The term existed before the 2010s
2019-12-09T11:13:26+00:00,929969367,929965955,0,Materialscientist,Credit crunch,Reverted edits by [[Special:Contribs/PrepareForMonetaryRevolution|PrepareForMonetaryRevolution]] ([[User talk:PrepareForMonetaryRevolution|talk]]) to last version by Maxeto0910
2014-06-05T12:39:56+00:00,611672879,611671754,0,Masssly,Credit crunch,Reverted 1 edit by [[Special:Contributions/93.93.221.5|93.93.221.5]] identified as test/vandalism using [[WP:STiki|STiki]]
2010-10-11T12:50:30+00:00,390056111,385174440,0,Joseph20202021,Credit crunch,/* See also */ Change wikilink
2013-09-28T17:14:37+00:00,574893361,540401340,0,Lambiam,Credit crunch,/* Background and causes */ wikilink
2009-02-02T11:13:24+00:00,268014991,267020813,0,Penn Station,Credit crunch,+interlang (ja)
2014-03-24T11:24:30+00:00,601017248,601017042,0,Gilliam,Credit crunch,Reverted edits by [[Special:Contribs/41.210.159.6|41.210.159.6]] ([[User talk:41.210.159.6|talk]]) to last version by 203.174.135.50
2008-02-19T19:44:00+00:00,192623512,192580254,0,Gogo Dodo,Credit crunch,"Rm, link spam"
2017-09-29T11:54:03+00:00,802934052,798314503,0,220.240.19.85,Credit crunch,
2015-04-17T13:38:43+00:00,656898646,644237911,0,128.177.139.120,Credit crunch,"/* Easy credit conditions */  added the missing word ""are"" after funds and before used"
2011-09-29T15:58:51+00:00,453065945,453065784,0,173.52.212.151,Credit crunch,/* Background and causes */
2008-12-23T03:09:57+00:00,259651082,259476706,0,Circeus,Credit crunch,/* Background and causes */ active credit crunch is mentioned in several locations across the encyclopedia
2013-02-25T23:50:15+00:00,540401340,518480784,0,Addbot,Credit crunch,"[[User:Addbot|Bot:]] Migrating 7 interwiki links, now provided by [[Wikipedia:Wikidata|Wikidata]] on [[d:q590998]] ([[User talk:Addbot|Report Errors]])"
2016-07-24T18:25:11+00:00,731339462,724107868,0,2601:345:8302:BCB6:1564:A62A:B8C8:D162,Credit crunch,/* Valuation of securities */
2021-04-03T13:18:47+00:00,1015770816,1004826429,0,Ignatius Ulouts Zakarpattia,Credit crunch,#suggestededit-add 1.0
2009-03-17T02:43:33+00:00,277786246,277777411,0,Ckatz,Credit crunch,spammed link
2019-06-27T02:35:03+00:00,903658431,890309897,0,CommonKnowledgeCreator,Credit crunch,/* Bibliography */ Added financial crises navbox
2015-06-27T04:02:08+00:00,668858712,660570752,0,Shearflyer,Credit crunch,fix date
2015-05-03T10:49:25+00:00,660570752,656898646,0,Edwardx,Credit crunch,wikilink(s) added
2008-05-10T04:06:27+00:00,211399872,211398152,0,Gregalton,Credit crunch,/* External links */ Trim links
2019-03-04T23:26:16+00:00,886228340,869369031,0,Loraof,Credit crunch,/* Causes */ update wikilink
2020-03-26T21:29:18+00:00,947529184,947169728,0,Citation bot,Credit crunch,"Alter: isbn, title. Add: title-link. | You can [[WP:UCB|use this bot]] yourself. [[WP:DBUG|Report bugs here]]. | Activated by [[User:Neko-chan]] | [[Category:Financial crises]] | via #UCB_Category"
2011-03-09T01:42:08+00:00,417884806,408794062,0,128.8.168.135,Credit crunch,/* See also */
2015-01-26T11:07:00+00:00,644237911,644237908,0,ClueBot NG,Credit crunch,"Reverting possible vandalism by [[Special:Contributions/95.242.26.122|95.242.26.122]] to version by Ivona Djuric. False positive? [[User:ClueBot NG/FalsePositives|Report it]]. Thanks, [[User:ClueBot NG|ClueBot NG]]. (2102148) (Bot)"
2022-04-15T03:32:07+00:00,1082786945,1047023297,0,HarrySONofBARRY,Credit crunch,Rescuing 9 sources and tagging 0 as dead.) #IABot (v2.0.8.7
2016-01-10T05:07:37+00:00,699091147,668858712,0,120.155.62.227,Credit crunch,"investopedia and other definitions say ""sudden"""
2016-06-07T05:27:54+00:00,724107868,715694027,0,Marcocapelle,Credit crunch,removed grandparent category of [[Category:Financial crises]]
2010-06-18T16:30:26+00:00,368820838,368758212,0,Satori Son,Credit crunch,revert banned user; see [[:Category:Wikipedia sockpuppets of Karmaisking]]
2009-04-25T09:43:40+00:00,286016340,286016330,0,William Avery,Credit crunch,Reverted edits by [[Special:Contributions/82.70.237.238|82.70.237.238]] to last revision by William Avery ([[WP:HG|HG]])
2014-05-18T23:20:36+00:00,609161461,601017248,0,24.3.8.179,Credit crunch,add ref
2010-04-06T13:45:25+00:00,354315301,351344869,0,216.6.167.31,Credit crunch,
2016-03-11T07:49:40+00:00,709497253,701888198,0,Lawrencekhoo,Credit crunch,Reverted to revision 699091147 by [[Special:Contributions/120.155.62.227|120.155.62.227]] ([[User talk:120.155.62.227|talk]]): Rv sock of banned user karmaisking. ([[WP:TW|TW]])
2018-11-18T04:28:37+00:00,869369031,802934052,0,Wbm1058,Credit crunch,"sp.: [[Organisation for Economic Co-operation and Development]], per [[MOS:CONSISTENCY]], proper names use the subject's own spelling (via [[WP:JWB]])"
2008-11-26T17:33:49+00:00,254259337,254205244,0,MastCell,Credit crunch,sp tag; rm circular wikilink
2009-12-14T17:32:02+00:00,331645477,331641007,0,MastCell,Credit crunch,[[Help:Reverting|Reverted]] edits by [[Special:Contributions/212.44.19.206|212.44.19.206]] ([[User talk:212.44.19.206|talk]]) to last version by 86.134.9.78
2014-01-28T02:45:44+00:00,592734811,574893361,0,203.174.135.50,Credit crunch,/* Background and causes */
2021-02-04T16:09:58+00:00,1004826429,999953621,0,2601:346:87F:C930:5541:3825:76A5:C128,Credit crunch,don't use
2011-04-21T17:20:35+00:00,425194302,425194173,0,Al-memani,Credit crunch,/* Background and causes */
2009-01-28T18:58:57+00:00,267020813,265952450,0,Levineps,Credit crunch,
2012-10-18T09:29:36+00:00,518480784,518480714,0,217.22.93.193,Credit crunch,
2019-08-11T16:31:14+00:00,910371243,903658431,0,2601:143:8003:75F0:1D3:D2A4:4890:D01C,Credit crunch,
2009-05-09T03:17:16+00:00,288799251,288799165,0,MastCell,Credit crunch,{{pp-semi-sock|small=yes}}
2017-06-03T13:05:28+00:00,783607535,772504364,0,Magic links bot,Credit crunch,Replace [[Help:Magic links|magic links]] with templates per [[Special:Permalink/772743896#Future of magic links|local RfC]] and [[:mw:Requests for comment/Future of magic links|MediaWiki RfC]]
2011-01-19T15:14:34+00:00,408794062,408794050,0,ClueBot NG,Credit crunch,"Reverting possible vandalism by [[Special:Contributions/86.171.125.194|86.171.125.194]] to version by Daniel.langkilde. False positive? [[User:ClueBot NG/FalsePositives|Report it]]. Thanks, [[User:ClueBot NG|ClueBot NG]]. (204189) (Bot)"
2019-03-31T15:30:43+00:00,890309897,886228340,0,MrOllie,Credit crunch,rm refspam
2016-09-19T11:38:40+00:00,740155642,731339462,0,120.19.107.250,Credit crunch,
2017-03-27T17:51:06+00:00,772504364,762299030,0,Ashley Pomeroy,Credit crunch,/* Bubble formation */
2010-05-14T09:25:30+00:00,362060694,358681641,0,Cydebot,Credit crunch,Robot - Moving category Terms and concepts of the 2000s United States housing bubble to United States housing bubble per [[WP:CFD|CFD]] at [[Wikipedia:Categories for discussion/Log/2010 May 5]].
2008-01-27T09:46:29+00:00,187220690,187023547,0,69.40.53.250,Credit crunch,[[Category:Economic problems]]
2007-02-21T16:18:12+00:00,109836841,107853617,0,Cornellrockey,Credit crunch,proposed deletion
2008-12-21T13:39:01+00:00,259342299,259291883,0,Cretog8,Credit crunch,rvt blog post EL
2017-07-20T18:51:57+00:00,791508715,783607535,0,213.222.167.66,Credit crunch,/* Causes */ political propaganda
2008-02-07T23:49:58+00:00,189843124,189843022,0,Triwbe,Credit crunch,Reverted 1 edit by [[Special:Contributions/82.21.239.198|82.21.239.198]] identified as [[WP:VAND|vandalism]] to last revision by [[User:210.87.15.130|210.87.15.130]]. ([[WP:TW|TW]])
2008-05-13T14:24:01+00:00,212113710,212103194,0,Ohnoitsjamie,Credit crunch,Reverted edits by [[Special:Contributions/Kram noswad|Kram noswad]] ([[User talk:Kram noswad|talk]]) to last version by Gregalton
2014-11-19T06:42:02+00:00,634497049,624223831,0,YiFeiBot,Credit crunch,"Bot: Migrating interwiki links, now provided by [[d:|Wikidata]] on [[d:q590998]]"
2019-10-08T04:00:21+00:00,920182467,910371243,0,220.240.71.123,Credit crunch,
2009-01-18T13:51:42+00:00,264866175,264050632,0,92.24.54.87,Credit crunch,
2007-12-13T20:41:50+00:00,177733089,177686523,0,EGeek,Credit crunch,deleted the 'Keloggs Credit Crunch' statement and reverted link to the U.S. subprime crisis
2011-07-16T03:03:35+00:00,439721508,438184666,0,99.190.85.163,Credit crunch,"[[Satyajit Das]] author of ''Traders, Guns & Money''"
2014-12-20T10:12:19+00:00,638891941,638891177,0,Ivona Djuric,Credit crunch,/* Historical perspective */
2008-05-07T17:08:53+00:00,210841867,209960181,0,62.60.98.134,Credit crunch,/* External links */
2011-06-04T15:26:18+00:00,432529999,425194302,0,81.129.138.184,Credit crunch,/* Background and causes */
2010-09-16T14:28:35+00:00,385174440,368820838,0,Xezbeth,Credit crunch,"General fixes, replaced: entrepeneur → entrepreneur using [[Project:AWB|AWB]]"
2012-04-24T13:41:57+00:00,488985576,488985460,0,Wen D House,Credit crunch,
2007-10-19T07:35:56+00:00,165584845,165584075,0,165.228.245.66,Credit crunch,/* External links */
2011-08-22T16:09:39+00:00,446170198,446170163,0,Bluerasberry,Credit crunch,Reverted edits by [[Special:Contributions/92.26.127.3|92.26.127.3]] ([[User talk:92.26.127.3|talk]]) to last revision by 99.190.85.163 ([[WP:HG|HG]])
2007-02-13T17:10:05+00:00,107853617,107431646,0,Rmky87,Credit crunch,rm redundant tag
2012-05-08T21:34:24+00:00,491466397,488985576,0,Helpful Pixie Bot,Credit crunch,ISBNs (Build KE)
2017-09-01T05:27:27+00:00,798314503,796701741,0,Omnipaedista,Credit crunch,see MOS:SECTIONORDER
2021-01-12T20:02:36+00:00,999953621,987269465,0,Monkbot,Credit crunch,[[User:Monkbot/task 18|Task 18 (cosmetic)]]: eval 5 templates: hyphenate params (1×);
2017-01-27T22:46:07+00:00,762299030,740155642,0,Esszet,Credit crunch,
2016-01-09T00:24:03+00:00,698909860,544969949,0,ManU0710,Credit cycle,"Fixed typo, Fixed grammar"
2007-11-25T02:47:12+00:00,173608435,170263285,0,99.247.124.174,Credit cycle,
2018-10-18T17:36:22+00:00,864664861,864652856,0,Mean as custard,Credit cycle,Reverted edits by [[Special:Contribs/Æthereal|Æthereal]] ([[User talk:Æthereal|talk]]) to last version by 115.186.99.42
2013-03-17T15:00:41+00:00,544969949,533764812,0,Addbot,Credit cycle,"[[User:Addbot|Bot:]] Migrating 1 interwiki links, now provided by [[Wikipedia:Wikidata|Wikidata]] on [[d:q5183772]]"
2010-05-05T11:14:55+00:00,360266877,360266662,0,$hady$hysterGeithner,Credit cycle,
2020-12-13T02:14:26+00:00,993898029,987203489,0,Monkbot,Credit cycle,[[User:Monkbot/task 18|Task 18 (cosmetic)]]: eval 3 templates: del empty params (2×); hyphenate params (3×);
2020-05-18T13:05:40+00:00,957358901,933959794,0,John of Reading,Credit cycle,"/* top */Typo/[[WP:AWB/GF|general]] fixes, replaced: Stategies → Strategies per the cover image at Google Books"
2017-11-26T20:28:22+00:00,812238397,812162233,0,Gevlare,Credit cycle,Undid revision 812162233 by [[Special:Contributions/Gevlare|Gevlare]] ([[User talk:Gevlare|talk]])
2009-04-09T14:43:54+00:00,282775775,261418843,0,RussBot,Credit cycle,Robot-assisted fix [[WP:DPL|links to disambiguation page]] Profit
2012-02-23T00:07:30+00:00,478341507,478341246,0,Healthnet11,Credit cycle,
2009-02-24T03:52:37+00:00,272885813,265953336,0,Tiptoety,Credit squeeze,"Changed protection level for ""[[Credit squeeze]]"": Set experation ([edit=autoconfirmed] (expires 00:00, 25 March 2009 (UTC)) [move=autoconfirmed] (expires 00:00, 25 March 2009 (UTC)))"
2016-12-11T09:44:11+00:00,754191860,744249939,0,Bender the Bot,Credit theory of money,/* Scholarship */clean up; http&rarr;https for [[The Guardian]] using [[Project:AWB|AWB]]
2013-11-08T23:12:07+00:00,580820279,566898139,0,LilHelpa,Credit theory of money,copy edit
2008-01-24T05:13:00+00:00,186522026,182658819,0,Zenwhat,Credit theory of money,Fixed double-redirect.
2020-05-13T15:29:55+00:00,956475798,951585760,0,RecapGrant,Credit theory of money,"Undid revision 951585760 by [[Special:Contributions/209.122.225.241|209.122.225.241]] ([[User talk:209.122.225.241|talk]]) (Excessive whitespace, format vandal?)"
2009-01-23T18:18:33+00:00,265954042,254204730,0,MastCell,Credit tightening,Protected Credit tightening: Reduce # of targets for banned sockpuppeteer ([edit=autoconfirmed] (indefinite) [move=autoconfirmed] (indefinite))
2008-11-26T10:54:37+00:00,254204730,254204671,0,John Quiggin,Credit tightening,Merge with credit crunch - better written and now more common
2008-03-12T13:27:40+00:00,197711561,183522479,0,Edward,Credit tightening,{{otheruses4|the credit crunch|the marginalization of closing credits for television promotion|Closing credits#Marginalization for television promotion}}
2007-10-12T08:59:15+00:00,164006733,159575558,0,220.101.165.127,Credit tightening,
2008-08-05T00:26:06+00:00,229885581,220306740,0,Flowanda,Credit tightening,/* External links */ removed external link available to subscribers only
2020-12-21T14:04:20+00:00,995519851,925341114,0,Cewbot,Criticism of fractional-reserve banking,[[User:Cewbot/log/20201008/configuration|Fix broken anchor]]: [[Special:Diff/783070319|2017-05-30T23:27:27Z]] #Criticisms of fractional-reserve banking→[[Fractional-reserve banking#Criticisms]]
2008-05-31T11:59:46+00:00,216171813,216114471,0,Gregalton,Criticism of fractional-reserve banking,[[WP:UNDO|Undid]] revision 216114471 by [[Special:Contributions/65.102.183.153|65.102.183.153]] ([[User talk:65.102.183.153|talk]])
2017-01-03T11:06:19+00:00,758084129,632645400,0,Гармонический Мир,Criticism of fractional-reserve banking,[[WP:AES|←]]Redirected page to [[Fractional-reserve banking#Criticisms of fractional-reserve banking]]
2014-11-06T03:17:11+00:00,632645400,515560010,0,Xqbot,Criticism of fractional-reserve banking,Bot: Fixing double redirect to [[Fractional-reserve banking]]
2019-11-09T13:41:52+00:00,925341114,758084129,0,Sawol,Criticism of fractional-reserve banking,Sawol moved page [[Criticism of fractional reserve banking]] to [[Criticism of fractional-reserve banking]] without leaving a redirect: [[Fractional-reserve banking]]
2006-07-26T14:56:38+00:00,65968988,56631704,0,MarshBot,Criticism of fractional-reserve banking,"Adding linkless template to orphan article, Replaced: → {{linkless-date|July 2006}}"
2022-07-12T18:02:10+00:00,1097802867,995519851,0,Cewbot,Criticism of fractional-reserve banking,[[User:Cewbot/log/20201008/configuration|Fixing broken anchor]]: [[Special:Diff/1065236885|2022-01-12]] (VERY DIFFERENT 16≥10) #Criticisms→[[Fractional-reserve banking#Commentary]]
2010-07-22T13:27:53+00:00,374850402,370682510,0,DumbBOT,Criticism of fractional-reserve banking,removing a protection template from a non-protected page ([[User:DumbBOT/Protection|info]])
2012-10-02T02:09:11+00:00,515560010,515414379,0,Cupco,Criticism of fractional-reserve banking,merge
2012-03-30T14:41:34+00:00,484702984,484685890,0,Ravensfire,Criticism of fractional-reserve banking,"Undid revision 484685890 by [[Special:Contributions/FistGoldmanMuppets|FistGoldmanMuppets]] ([[User talk:FistGoldmanMuppets|talk]])Love the sense of humor, Kik, so just reverting a minor edit"
2009-12-29T07:30:01+00:00,334690385,334690316,0,Woohookitty,Criticism of fractional-reserve banking,[[:en:User:NicoV/Wikipedia Cleaner/Documentation|WikiCleaner]] 0.98 - Repairing link to disambiguation page - [[Wikipedia:Disambiguation pages with links|You can help!]]
2009-05-14T09:07:06+00:00,289844055,288799282,0,Citation bot,Criticism of fractional-reserve banking,Citation maintenance. Formatted: year.  You can [[WP:UCB|use this bot]] yourself! Please [[User:DOI_bot/bugs|report any bugs]].
2011-01-11T08:47:50+00:00,407241201,405645626,0,Lawrencekhoo,Criticism of fractional-reserve banking,/* Other economic and political criticisms */ rm too much weight for marginally notable author
2011-10-05T08:08:19+00:00,454041784,454041659,0,Byelf2007,Criticism of fractional-reserve banking,"already linked, heterodox is peacock"
2010-10-18T09:03:12+00:00,391404926,391404393,0,BigK HeX,Criticism of fractional-reserve banking,[[Help:Reverting|Reverted]] edits by [[Special:Contributions/122.110.41.47|122.110.41.47]] ([[User talk:122.110.41.47|talk]]) to last version by JohnDoe0007
2011-07-27T07:02:17+00:00,441668649,441449191,0,Kevlar67,Criticism of fractional-reserve banking,/* Typical criticisms */ Social Credit
2007-03-22T05:10:47+00:00,116966391,116966310,0,165.228.245.66,Criticism of fractional-reserve banking,/* See also */
2010-08-10T01:32:17+00:00,378101285,377481093,0,DumbBOT,Criticism of fractional-reserve banking,removing a protection template from a non-protected page ([[User:DumbBOT/Protection|info]])
2006-12-12T23:15:45+00:00,93927397,65968988,0,SmackBot,Criticism of fractional-reserve banking,Date/correct the maintenance tags  using [[Project:AWB|AWB]]
2010-04-26T23:12:08+00:00,358518111,357778511,0,SmackBot,Criticism of fractional-reserve banking,Date maintenance tags and general fixes: build 413:
2011-11-15T13:55:32+00:00,460776502,460765272,0,Bobrayner,Criticism of fractional-reserve banking,"Removed pointy category. A collection of fringey economic positions doesn't belong in the same category as love, hate, cruelty, torture, truth &c."
2010-04-23T06:49:14+00:00,357778511,357612333,0,Marokwitz,Criticism of fractional-reserve banking,/* Non-mainstream views */[[WP:EDITORIAL]] using [[Project:AWB|AWB]]
2012-05-06T22:18:33+00:00,491076166,484702984,0,Helpful Pixie Bot,Criticism of fractional-reserve banking,ISBNs (Build KC)
2012-01-23T03:40:45+00:00,472736912,468618689,0,Bobrayner,Criticism of fractional-reserve banking,returning to most recent good version
2008-12-04T06:36:15+00:00,255796609,255284089,0,Rjwilmsi,Criticism of fractional-reserve banking,"[[User:Rjwilmsi#Other_fixes|gen fixes]]: (21) set identical references to use existing ref name (9), set identical unnamed references to use named refs (12),  using [[Project:AutoWikiBrowser|AWB]]"
2012-03-21T14:16:47+00:00,483136102,483088290,0,Bobrayner,Criticism of fractional-reserve banking,let's try to keep this neutral
2011-02-06T07:54:17+00:00,412305757,407241201,0,Darx9url,Criticism of fractional-reserve banking,/* Other economic and political criticisms */ Minsky did not say this
2009-03-03T11:33:21+00:00,274663522,274658115,0,Lawrencekhoo,Criticism of fractional-reserve banking,/* Basic debate */ MOS
2009-05-24T01:06:51+00:00,291918529,291460204,0,Lawrencekhoo,Criticism of fractional-reserve banking,/* Other economic and political criticisms */
2006-06-03T07:35:45+00:00,56631704,54415888,0,Whitejay251,Criticism of fractional-reserve banking,
2008-08-06T18:08:29+00:00,230240121,225640234,0,PrimeHunter,Criticism of fractional-reserve banking,sortkey
2008-09-15T09:25:42+00:00,238546107,238162588,0,Gregalton,Criticism of fractional-reserve banking,"Rvt to previous version - repetitive, non-grammatical re-write not an improvement"
2011-09-03T22:33:37+00:00,448294345,448294252,0,Mats33,Criticism of fractional-reserve banking,/* See also */
2006-05-21T21:38:58+00:00,54415888,53825013,0,Ioannes Pragensis,Criticism of fractional-reserve banking,categ
2011-09-26T19:45:45+00:00,452573179,448294345,0,Citation bot 1,Criticism of fractional-reserve banking,[Pu405]Misc citation tidying.  You can [[WP:UCB|use this bot]] yourself. [[WP:DBUG|Report bugs here]].
2007-04-25T07:54:17+00:00,125765540,125765392,0,210.11.74.62,Criticism of fractional-reserve banking,
2008-05-06T05:40:04+00:00,210508327,210507249,0,Gregalton,Criticism of fractional-reserve banking,"Revert - deletion of well-sourced, relevant material"
2007-08-24T07:13:31+00:00,153312579,153309337,0,Maktimothy,Criticism of fractional-reserve banking,/* Policy Implications */
2011-12-30T16:29:07+00:00,468618689,468618526,0,Helpful Pixie Bot,Criticism of fractional-reserve banking,Dated {{Citation needed}}. (Build p616)
2009-04-14T06:58:35+00:00,283736062,283490573,0,Edward,Criticism of fractional-reserve banking,link [[money creation]] using [[User:Edward/Find link|Find link]]
2010-05-22T22:58:11+00:00,363626843,363121740,0,Masterrows,Criticism of fractional-reserve banking,Unverified claim
2012-07-01T00:11:49+00:00,500115262,500099903,0,Tbhotch,Criticism of fractional-reserve banking,removing a protection template from a non-protected page
2009-10-01T19:57:37+00:00,317339381,313043534,0,BrownHairedGirl,Criticism of fractional-reserve banking,Disambiguate [[M2]] to [[M2 (economics)]] using [[:en:Wikipedia:Tools/Navigation_popups|popups]]
2012-03-12T01:37:00+00:00,481437582,481436443,0,Ravensfire,Criticism of fractional-reserve banking,Undid revision 481436443 by [[Special:Contributions/AmourReflection|AmourReflection]] ([[User talk:AmourReflection|talk]])Get concensus on talk page before readding
2010-12-14T15:12:27+00:00,402347170,398435259,0,Yobot,Criticism of fractional-reserve banking,/* Typical criticisms */[[WP:CHECKWIKI]] error fixes + [[WP:GENFIXES|general fixes]] using [[Project:AWB|AWB]] (7463)
2009-03-30T17:13:45+00:00,280681419,280641872,0,Lawrencekhoo,Criticism of fractional-reserve banking,rv sock
2008-07-14T18:08:35+00:00,225640234,225609952,0,Cretog8,Criticism of fractional-reserve banking,be more selecting in tagging
2010-12-24T16:21:27+00:00,404047006,402347170,0,BigK HeX,Criticism of fractional-reserve banking,/* Other economic and political criticisms */ note acceptance per [[WP:FRINGE]]
2007-09-02T11:21:12+00:00,155193193,155193051,0,61.9.204.245,Criticism of fractional-reserve banking,/* Policy Implications */
2008-11-10T17:29:59+00:00,250907994,250907926,0,Stijn Calle,Criticism of fractional-reserve banking,/* See also */
2009-01-12T18:48:01+00:00,263634114,263634032,0,MastCell,Criticism of fractional-reserve banking,{{pp-semi-sock}}
2007-10-05T15:30:52+00:00,162472600,160203828,0,Gregalton,Criticism of fractional-reserve banking,"remove odd phrasing ""probably more often"""
2010-05-27T13:59:25+00:00,364481835,364451910,0,Lawrencekhoo,Criticism of fractional-reserve banking,Reverted 1 edit by [[Special:Contributions/GodSaysNoMore|GodSaysNoMore]]; Rv banned user. ([[WP:TW|TW]])
2009-11-12T09:51:25+00:00,325411840,324844010,0,122.105.43.58,Criticism of fractional-reserve banking,Repositioned section more appropriately that had been dumped in the wrong place.
2010-01-20T17:18:53+00:00,338985684,338985602,0,MastCell,Criticism of fractional-reserve banking,semiprotection template
2009-05-21T19:38:20+00:00,291460204,289844055,0,Transity,Criticism of fractional-reserve banking,Disambiguate [[Housing]] to [[House]] using [[:en:Wikipedia:Tools/Navigation_popups|popups]]
2009-04-10T05:03:23+00:00,282918626,282917108,0,Johngelles,Criticism of fractional-reserve banking,/* Basic debate */
2007-06-12T23:13:37+00:00,137780612,136249755,0,210.11.74.62,Criticism of fractional-reserve banking,
2010-10-02T05:14:04+00:00,388228402,388219681,0,Skyerise,Criticism of fractional-reserve banking,"/* Terminology */ neither of these citations support this assertion, you can't prove an absence with examples, need a source that makes an explicit statement"
2010-09-17T01:57:33+00:00,385277724,385255913,0,BookishOwl,Criticism of fractional-reserve banking,/* Basic nature of system */
2009-09-10T18:16:11+00:00,313043534,309713886,0,Snigbrook,Criticism of fractional-reserve banking,fix links
2009-08-18T15:13:23+00:00,308696826,308552099,0,SmackBot,Criticism of fractional-reserve banking,/* Basic debate */Date maintenance tags and general  fixes
2008-03-13T17:56:33+00:00,198006673,197124416,0,Scientizzle,Criticism of fractional-reserve banking,rm redlink
2008-01-24T05:12:11+00:00,186521890,185253382,0,Zenwhat,Criticism of fractional-reserve banking,"moved [[Criticisms of fractional-reserve banking]] to [[Criticism of fractional-reserve banking]]: Moving to singular ""criticism"" in accordance with Wikipedia's naming conventions"
2010-03-13T10:56:50+00:00,349593424,349503554,0,Belovedfreak,Criticism of fractional-reserve banking,Remove link to dab page [[Depression]] using [[:en:Wikipedia:Tools/Navigation_popups|popups]]
2007-12-18T00:50:09+00:00,178618190,178612345,0,Gregalton,Criticism of fractional-reserve banking,"/* Basic debate */ Section on ""conventional"" approach to debt-based money"
2009-05-04T20:11:51+00:00,287911389,287682437,0,SmackBot,Criticism of fractional-reserve banking,Date maintenance tags and general  fixes
2010-06-18T16:47:49+00:00,368823998,368823747,0,BigK HeX,Criticism of fractional-reserve banking,add reflist
2011-06-15T02:06:54+00:00,434340078,433670843,0,Ikerus,Criticism of fractional-reserve banking,Added citation for typical criticism
2008-05-10T03:44:45+00:00,211397157,211393679,0,Gregalton,Criticism of fractional-reserve banking,Rvt more editing by sockpuppet of [[User:Karmaisking]] [[User:Lagrandebanquesucre]] (anyone have time to block him?)
2008-01-14T01:10:16+00:00,184163053,184162272,0,Gregalton,Criticism of fractional-reserve banking,/* Conventional economic analysis */ fix ref
2007-08-06T09:59:33+00:00,149513271,148637780,0,Barticus88,Criticism of fractional-reserve banking,[[Credit]]→[[Credit (finance)]] in the holy name of [[WP:DPL|WikiProject Disambiguation]] using [[WP:POP|Popups]]
2007-02-25T03:37:49+00:00,110744246,107068122,0,Maktimothy,Criticism of fractional-reserve banking,
2008-11-15T23:22:34+00:00,252047770,252047378,0,122.105.43.130,Criticism of fractional-reserve banking,/* Conventional economic analysis */
2009-10-29T17:10:45+00:00,322761407,321219578,0,Rubisco~enwiki,Criticism of fractional-reserve banking,Removed link. An animation that someone has produced in their bedroom has no place as a source in a serious encyclopedia.
2012-03-02T04:04:14+00:00,479765283,479765162,0,EuroTrashTrashed,Criticism of fractional-reserve banking,Now has its own article
2008-02-27T01:52:33+00:00,194320090,194286736,0,Mårten Berglund,Criticism of fractional-reserve banking,/* See also */ Money as Debt
2008-12-17T18:54:21+00:00,258620240,258203048,0,DumbBOT,Criticism of fractional-reserve banking,removing a protection template from a non-protected page ([[User:DumbBOT/Protection|info]])
2010-11-03T20:51:17+00:00,394656162,394519168,0,Fram,Criticism of fractional-reserve banking,/* Typical criticisms */Add or correct date in parameters using [[Project:AWB|AWB]]
2007-12-31T06:52:48+00:00,181147722,181022641,0,EGeek,Criticism of fractional-reserve banking,Reverted to original before changes from [[User:69.138.16.202|69.138.16.202]] who valuated [[WP:3RR]] - Please discuss first.
2007-05-08T04:00:20+00:00,129147854,125765540,0,68.77.241.180,Criticism of fractional-reserve banking,"added simple thought example to show that ""the debt cannot be repaid"" is not a fallacy"
2011-06-11T05:18:06+00:00,433670843,433251270,0,Edward,Criticism of fractional-reserve banking,link [[money creation]] using [[User:Edward/Find link|Find link]]
2010-11-23T13:16:22+00:00,398435259,398434651,0,BigK HeX,Criticism of fractional-reserve banking,Undid revision 398434651 by [[Special:Contributions/Diza|Diza]] ([[User talk:Diza|talk]]) sure it's biased.  Though I'm not sure that's enough reasoning to remove (and reset) tags...
2009-02-24T22:45:53+00:00,273062728,272951106,0,John Quiggin,Criticism of fractional-reserve banking,/* Conventional economic analysis */ cleaning out more old sock stuff
2007-08-24T02:38:14+00:00,153276350,153274111,0,Maktimothy,Criticism of fractional-reserve banking,/* Policy Implications */
2009-11-17T18:12:07+00:00,326382187,326361134,0,Lawrencekhoo,Criticism of fractional-reserve banking,Reverted 1 edit by [[Special:Contributions/89.145.220.86|89.145.220.86]]. ([[WP:TW|TW]])
2007-06-06T04:04:33+00:00,136249755,136249254,0,210.11.74.62,Criticism of fractional-reserve banking,/* Economic and political opposition */
2009-12-15T12:55:21+00:00,331800222,331766395,0,Ravensfire,Criticism of fractional-reserve banking,[[WP:UNDO|Undid]] revision 331766395 by [[Special:Contributions/TheFoodChainIsDying|TheFoodChainIsDying]] ([[User talk:TheFoodChainIsDying|talk]])rv banned editor
2007-07-04T06:45:40+00:00,142408778,142408703,0,165.228.245.66,Criticism of fractional-reserve banking,/* Policy Implications */
2008-03-19T20:09:47+00:00,199419924,199100188,0,Doopdoop,Criticism of fractional-reserve banking,/* Basic debate */ restoring original meaning
2008-10-16T00:36:56+00:00,245566074,245566000,0,84.137.35.69,Criticism of fractional-reserve banking,[[WP:NOR]]
2010-06-22T23:12:07+00:00,369636161,369634000,0,Sghorwitz,Criticism of fractional-reserve banking,I have deleted the paragraph describing me as a defender of 100% or full reserve banking.  That is the exact OPPOSITE of the truth.  I am a strident critic of 100% reserves.
2007-04-12T04:29:46+00:00,122143425,122142851,0,165.228.245.66,Criticism of fractional-reserve banking,
2008-04-23T02:04:06+00:00,207509462,207506402,0,Gregalton,Criticism of fractional-reserve banking,[[WP:UNDO|Undid]] revision 207506402 by [[Special:Contributions/71.215.81.249|71.215.81.249]] ([[User talk:71.215.81.249|talk]])
2009-08-24T02:53:04+00:00,309713886,309563919,0,Wmpearl,Criticism of fractional-reserve banking,
2007-12-06T17:14:01+00:00,176182058,176180229,0,Sm8900,Criticism of fractional-reserve banking,
2010-06-28T22:27:06+00:00,370682510,370038593,0,Citation bot 1,Criticism of fractional-reserve banking,Citations: [Pu168]Unified citation types.  You can [[WP:UCB|use this bot]] yourself! [[WP:DBUG|Report bugs here]].
2007-08-02T03:08:57+00:00,148637780,148637625,0,Maktimothy,Criticism of fractional-reserve banking,/* See also */
2007-07-11T18:46:28+00:00,144017648,143847118,0,209.89.75.175,Criticism of fractional-reserve banking,
2012-06-10T05:44:15+00:00,496857542,496855661,0,AnomieBOT,Criticism of fractional-reserve banking,Dating maintenance tags: {{NPOV}} {{Cn}}
2010-02-27T22:53:58+00:00,346767834,346767763,0,Nbarth,Criticism of fractional-reserve banking,fix link
2009-04-12T15:54:37+00:00,283378026,283369251,0,Lawrencekhoo,Criticism of fractional-reserve banking,Reverted 13 edits by [[Special:Contributions/CrisisFeedsLeviathan|CrisisFeedsLeviathan]]; Rv sock. ([[WP:TW|TW]])
2009-12-02T03:52:40+00:00,329178278,329164022,0,BigK HeX,Criticism of fractional-reserve banking,[[WP:UNDO|Undid]] revision 329164022 by [[Special:Contributions/122.104.48.120|122.104.48.120]] ([[User talk:122.104.48.120|talk]]) rv ...  for all the reasons stated for previous reverts
2008-03-16T09:01:41+00:00,198594007,198593349,0,Gregalton,Criticism of fractional-reserve banking,"/* External links */ Remove non-encyclopedic, pseud-economics self-published paper"
2008-11-24T17:50:47+00:00,253824710,253824638,0,MastCell,Criticism of fractional-reserve banking,sp template
2007-07-25T08:07:01+00:00,146950398,146950131,0,165.228.245.66,Criticism of fractional-reserve banking,
2009-04-13T03:12:39+00:00,283490573,283459138,0,Lawrencekhoo,Criticism of fractional-reserve banking,Reverted 1 edit by [[Special:Contributions/CrisisFeedsLeviathan|CrisisFeedsLeviathan]]; Rv sock. ([[WP:TW|TW]])
2009-05-09T03:17:26+00:00,288799282,288799105,0,MastCell,Criticism of fractional-reserve banking,{{pp-semi-sock|small=yes}}
2007-05-12T06:16:23+00:00,130272149,130248653,0,165.228.245.66,Criticism of fractional-reserve banking,
2009-01-09T11:47:00+00:00,262951342,262940816,0,John Quiggin,Criticism of fractional-reserve banking,rvv
2009-02-08T15:36:03+00:00,269339288,267666326,0,JerroldPease-Atlanta,Criticism of fractional-reserve banking,"/* Conventional economic analysis */ copy-edit/grammar: ""generates inevitably debasement"" ==> ""inevitably generates debasement"""
2008-03-24T23:17:30+00:00,200663851,200604789,0,Doopdoop,Criticism of fractional-reserve banking,this fringe article should have a NPOV lead
2011-06-08T18:36:55+00:00,433251270,412305757,0,Edward,Criticism of fractional-reserve banking,link [[fiat money]] using [[User:Edward/Find link|Find link]]
2008-10-20T18:27:38+00:00,246545633,245848200,0,62.68.182.111,Criticism of fractional-reserve banking,relevant book: James Robertson: Creating New Money: A Monetary Reform for the Information Age
2008-01-10T15:58:40+00:00,183414639,183258539,0,Gregalton,Criticism of fractional-reserve banking,/* Conventional economic analysis */ citation
2012-03-08T12:10:04+00:00,480824479,479765283,0,Woohookitty,Criticism of fractional-reserve banking,[[:en:WP:CLEANER|WPCleaner]] (v1.12) Repaired link to disambiguation page - [[WP:DPL|(You can help)]] - [[Conservationist]]
2009-12-18T22:38:02+00:00,332569458,332569264,0,BigK HeX,Criticism of fractional-reserve banking,"/* Non-mainstream views */ free banking is not a ""Criticism"" of fractional reserve banking"
2009-10-17T19:29:39+00:00,320453349,320170472,0,J04n,Criticism of fractional-reserve banking,Repairing links to disambiguation pages - [[Wikipedia:Disambiguation pages with links|You can help!]]
2009-03-13T21:54:13+00:00,277058026,277034778,0,Janosabel,Criticism of fractional-reserve banking,"/* Terminology */   deleted  ""and the related fiat paper monetary"".Fiat paper money is not related to bank authorised debt money"
2008-10-24T22:08:44+00:00,247472592,247146361,0,74.161.68.82,Criticism of fractional-reserve banking,/* Basic debate */
2011-10-29T01:24:50+00:00,457907054,454041784,0,DumbBOT,Criticism of fractional-reserve banking,removing a protection template from a non-protected page ([[User:DumbBOT/Protection|info]])
2010-09-30T02:47:06+00:00,387843396,385277724,0,ImperfectlyInformed,Criticism of fractional-reserve banking,/* Basic debate */ Anatale does not make this argument that I can see; ask for page number on the other source
2007-08-17T02:14:19+00:00,151734787,151593610,0,Maktimothy,Criticism of fractional-reserve banking,
2007-06-18T23:10:53+00:00,139085132,138229480,0,210.11.74.62,Criticism of fractional-reserve banking,/* Economic and political opposition */
2007-03-11T01:16:54+00:00,114192675,110744246,0,68.76.146.120,Criticism of fractional-reserve banking,debt based money is implicitly non-repayable
2007-12-18T05:20:09+00:00,178663403,178662951,0,Gregalton,Criticism of fractional-reserve banking,/* Conventional economic analysis */
2012-02-12T05:53:33+00:00,476404163,472736912,0,RoyBoy,Criticism of fractional-reserve banking,NPOV removed
2008-10-03T01:32:01+00:00,242642920,242463071,0,Doradus,Criticism of fractional-reserve banking,Reduce redundant references
2007-02-10T12:43:14+00:00,107068122,93927397,0,Maktimothy,Criticism of fractional-reserve banking,
2007-05-28T06:47:56+00:00,134025048,133577026,0,210.11.74.62,Criticism of fractional-reserve banking,
2008-10-10T09:31:22+00:00,244338285,244325333,0,Rjwilmsi,Criticism of fractional-reserve banking,"[[User:Rjwilmsi#Other_fixes|gen fixes]]: fix web link format,  using [[Project:AutoWikiBrowser|AWB]]"
2011-01-03T06:51:57+00:00,405645626,405378821,0,Lawrencekhoo,Criticism of fractional-reserve banking,"Reverted 3 edits by [[Special:Contributions/BobEnyart|BobEnyart]] ([[User talk:BobEnyart|talk]]); Not notable, not [[WP:RS|reliably sourced]]. ([[WP:TW|TW]])"
2010-09-12T02:13:52+00:00,384312269,384292319,0,Weaponbb7,Criticism of fractional-reserve banking,closed discussion consensus was to not merge
2009-02-17T17:57:24+00:00,271381022,271320285,0,Lawrencekhoo,Criticism of fractional-reserve banking,Reverted to revision 271319775 by [[Special:Contributions/Lawrencekhoo|Lawrencekhoo]]; rv sock. ([[WP:TW|TW]])
2007-05-15T08:48:00+00:00,130989917,130989706,0,210.11.74.62,Criticism of fractional-reserve banking,
2007-11-13T23:39:19+00:00,171316470,171189140,0,165.228.245.66,Criticism of fractional-reserve banking,"The article is so butchered, why even try?"
2008-09-11T10:55:26+00:00,237685521,230240121,0,John Quiggin,Criticism of fractional-reserve banking,rm nonsense claim re Friedman
2010-11-10T06:57:07+00:00,395895215,394656162,0,Edward,Criticism of fractional-reserve banking,link [[full-reserve banking]] using [[User:Edward/Find link|Find link]]
2013-06-18T10:02:59+00:00,560425069,560424963,0,Pratyya Ghosh,Danger Hiptop,Reverted edit(s) by [[Special:Contributions/50.53.48.50|50.53.48.50]] identified as test/vandalism using [[WP:STiki|STiki]]
2019-09-28T19:24:41+00:00,918457416,906625134,0,Monkbot,Darkside (Tim Minchin album),/* top */[[User:Monkbot/task 16: remove replace deprecated dead-url params|Task 16]]: replaced (1×) / removed (0×) deprecated |dead-url= and |deadurl= with |url-status=;
2014-12-22T02:10:11+00:00,639123947,635485853,0,SporkBot,Danger Hiptop,Repair [[:Category:Pages using duplicate arguments in template calls|duplicate template args]]
2016-06-21T02:53:05+00:00,726262505,726262496,0,ClueBot NG,Currency,"Reverting possible vandalism by [[Special:Contribs/186.101.246.75|186.101.246.75]] to version by Eno Lirpa. [[WP:CBFP|Report False Positive?]] Thanks, [[WP:CBNG|ClueBot NG]]. (2690654) (Bot)"
2021-02-22T09:46:20+00:00,1008247349,1008243069,0,Vgbyp,Currency,Reverted 1 edit by [[Special:Contributions/2402:8100:22F7:3480:351E:54B3:CED4:2998|2402:8100:22F7:3480:351E:54B3:CED4:2998]] ([[User talk:2402:8100:22F7:3480:351E:54B3:CED4:2998|talk]]) to last revision by ClueBot NG
2012-08-22T16:58:58+00:00,508642116,468621088,0,Magioladitis,Darkside (Tim Minchin album),clean up using [[Project:AWB|AWB]] (8279)
2021-10-20T15:20:07+00:00,1050902086,1047365465,0,Utcursch,David Hanson (robotics designer),[[WP:BLP]]: any criticism should be cited in this article
2014-09-24T14:07:15+00:00,626898665,626898464,0,12.30.109.2,David Hanson (robotics designer),/* Career */ edited to add that frubber is elastic polymer; changed wording
2021-05-31T09:32:30+00:00,1026090918,1026084324,0,Zelchenko,David Hanson (robotics designer),"revise, add general link to Hanson_Robotics#Criticism, continue citations there"
2007-11-20T14:24:49+00:00,172702378,171796422,0,SquallLeonhart ITA,David Hanson (robotics designer),/* Introduction */
2018-07-22T12:03:48+00:00,851455774,851146008,0,Meaningful Username,Death of Carlo Giuliani,/* Incident */ Fixed grammar
2010-04-25T00:35:15+00:00,358113122,358080549,0,Noclador,Death of Carlo Giuliani,Reverted [[WP:AGF|good faith]] edits by [[Special:Contributions/88.227.68.219|88.227.68.219]]; No bands. ([[WP:TW|TW]])
2007-06-27T11:48:04+00:00,140935339,124336595,0,Roboto de Ajvol,Deaths in 2006,robot  Modifying: [[ru:Умершие в 2006 году]]
2012-07-08T10:13:13+00:00,501223397,499830704,0,DoctorKubla,Deaths in 2006,"Redirecting page to [[Lists of deaths by year#2006]] (see [[Talk:Lists of deaths by year#Redirecting ""Deaths in..."" pages|discussion]])"
2009-09-28T00:59:16+00:00,316597312,316597264,0,75.47.155.211,Deaths in 2006,
2010-09-15T12:12:32+00:00,384968631,384968546,0,Syrthiss,Deaths in 2006,[[Help:Reverting|Reverted]] edits by [[Special:Contributions/194.81.239.14|194.81.239.14]] ([[User talk:194.81.239.14|talk]]) to last version by Adlerbot
2007-07-12T11:54:20+00:00,144165631,140435659,0,Oxymoron83,Deaths in February 2006,fixed link to disambiguation page
2019-06-23T14:00:44+00:00,903091707,903091598,0,CLCStudent,Deaths in February 2006,Reverted 1 edit by [[Special:Contributions/81.128.143.126|81.128.143.126]] ([[User talk:81.128.143.126|talk]]) to last revision by Lrwilli ([[WP:TW|TW]])
2018-03-03T06:02:27+00:00,828543347,826311959,0,103.14.61.166,Deaths in January 2006,/* 20 */
2016-04-21T22:47:25+00:00,716466500,716463037,0,AnomieBOT,Deaths in January 2006,Dating maintenance tags: {{Cn}}
2012-04-16T01:15:44+00:00,487594035,487050970,0,Luckas-bot,Debt,r2.7.1) (Robot: Adding [[ur:قرض]]
2009-08-02T01:52:40+00:00,305559321,303973595,0,Alansohn,Deaths in January 2006,/* 14 */ wikilink to label
2015-07-30T17:08:02+00:00,673812187,673807429,0,92.24.175.40,Debt,
2019-02-25T16:53:47+00:00,885045818,885031326,0,Deli nk,Debt,Undid revision 885031326 by [[Special:Contributions/A.Abernethy|A.Abernethy]] ([[User talk:A.Abernethy|talk]])
2015-05-10T02:38:57+00:00,661642425,661641950,0,Summerqrs,Debt,"Added ""borrower"" and ""lender"" terminology"
2012-11-16T18:47:58+00:00,523366804,523366785,0,ClueBot NG,Debt bondage,"Reverting possible vandalism by [[Special:Contributions/202.5.149.134|202.5.149.134]] to version by Greensburger. False positive? [[User:ClueBot NG/FalsePositives|Report it]]. Thanks, [[User:ClueBot NG|ClueBot NG]]. (1341485) (Bot)"
2022-09-25T21:15:18+00:00,1112337675,1096338306,0,MoviesandTelevisionFan,Deaths in January 2006,/* 20 */
2016-10-29T02:46:54+00:00,746715614,746715037,0,Sa49,Debt bondage,/* Rice harvesting */ added links
2017-11-08T10:14:31+00:00,809310514,809310510,0,ClueBot NG,Debt bondage,"Reverting possible vandalism by [[Special:Contribs/49.207.116.94|49.207.116.94]] to version by XLinkBot. [[WP:CBFP|Report False Positive?]] Thanks, [[WP:CBNG|ClueBot NG]]. (3182290) (Bot)"
2013-02-19T18:30:15+00:00,539082586,539043309,0,Addbot,Dieppe Raid,[[User:Addbot|Bot:]] Updating 29 interwikilinks per [[Wikipedia:Wikidata|Wikidata]] [[d:q270517]] ([[User talk:Addbot|Report Errors]])
2015-10-26T14:50:23+00:00,687591814,682963056,0,Shivap,Dilli Haat,added [[Category:South Delhi district]] using [[WP:HC|HotCat]]
2014-06-07T02:05:29+00:00,611897104,610575244,0,Jnc,Dieppe Raid,/* Bibliography */ rm duplicate entry - the Houghton edition was printed by Riverside
2008-04-13T17:13:43+00:00,205361744,202371642,0,S3000,Dilli Haat,Removed unnecessary capital letter
2021-06-07T16:03:00+00:00,1027381287,1021689717,0,Anupamdutta73,Dilli Haat,"Adding [[Wikipedia:Short description|short description]]: ""A parmanent open air market."" ([[Wikipedia:Shortdesc helper|Shortdesc helper]])"
2020-02-25T14:48:12+00:00,942576169,942576098,0,2600:1001:B02A:7793:10B:6D4F:9903:FD31,Dilli Haat,/* Craftsmen */ spacing
2020-05-23T10:54:01+00:00,958359883,956833080,0,Edwardx,Donald Michie,added [[Category:Michie family]] using [[WP:HC|HotCat]]
2014-06-11T01:08:23+00:00,612433619,604185145,0,Danielmee,Donald Michie,/* Rferences */ eferences
2014-11-21T11:30:57+00:00,634819546,630876679,0,Gronk Oz,Eastern Suburbs railway line,"Fix spelling of ""Woolloomooloo"""
2007-07-03T06:26:58+00:00,142187898,142186368,0,Harryboyles,Eastern Suburbs railway line,clean up  using [[Project:AutoWikiBrowser|AWB]]
2016-06-04T17:24:53+00:00,723699749,723349368,0,Marcocapelle,Debt bondage,removed [[Category:Poverty]]; added [[Category:Poverty-related probems]] using [[WP:HC|HotCat]]
2011-08-27T04:46:44+00:00,446926643,443613074,0,Breno,Eastern Suburbs railway line,/* A Bondi Beach Railway */clean up using [[Project:AWB|AWB]]
2013-12-06T05:36:13+00:00,584805622,577856927,0,125.254.34.238,Eastern Suburbs railway line,
2009-02-23T23:48:00+00:00,272839248,271412658,0,80.56.255.230,Economics of fascism,/* Pre-war economy: 1933-1939 */ link add
2011-02-22T22:49:21+00:00,415402044,415402022,0,ClueBot NG,Economics of fascism,"Reverting possible vandalism by [[Special:Contributions/207.235.192.2|207.235.192.2]] to version by 96.26.219.188. False positive? [[User:ClueBot NG/FalsePositives|Report it]]. Thanks, [[User:ClueBot NG|ClueBot NG]]. (300437) (Bot)"
2016-04-30T03:52:41+00:00,717855163,701789034,0,Mcc1789,Economics of fascism,
2015-03-21T17:26:50+00:00,652902218,652901721,0,Smalljim,Electronic City,Reverted edits by [[Special:Contribs/Neohomes|Neohomes]] ([[User talk:Neohomes|talk]]) to last version by Kaustuv53
2006-10-24T22:48:48+00:00,83519325,83140582,0,4.152.129.90,Economics of fascism,/* Political economy of Nazi Germany */
2022-10-15T12:56:34+00:00,1116219352,1116218784,0,183.87.175.29,Electronic City,Revised content
2010-06-09T20:44:57+00:00,367055857,367053607,0,Slipstreamer1,Eli M. Black,/* Death */
2009-05-16T19:46:44+00:00,290370290,284469902,0,S2grand,Eli M. Black,added link to Wikipedia entry for  American Financial Group to  Death section
2007-10-13T23:55:57+00:00,164390319,158695282,0,SmackBot,Embezzlement,Date/fix the maintenance tags or gen fixes
2009-11-30T22:27:46+00:00,328896446,328882088,0,NawlinWiki,Embezzlement,[[Help:Reverting|Reverted]] edits by [[Special:Contributions/69.2.143.173|69.2.143.173]] ([[User talk:69.2.143.173|talk]]) to last version by C Teng
2021-10-29T17:04:18+00:00,1052522854,1051559587,0,Arllaw,Embezzlement,Rephrasing.
2007-02-07T23:25:44+00:00,106435161,104757803,0,Velle~enwiki,Embezzlement,Link to danish wikipedia added
2006-05-19T22:03:05+00:00,54099237,54098938,0,Dr.frog,Embezzlement,categories
2016-02-21T03:00:25+00:00,706042926,698989918,0,24.51.73.17,Embezzlement,
2018-01-06T05:37:35+00:00,818889879,809324192,0,Lockesdonkey,Embezzlement,"The whole lead section needs to be rewritten because it explains embezzlement at common law. The definitions are different even in Model Penal Code common-law jurisdictions (I have firsthand knowledge as I clerked in New Jersey, an MPC jurisdiction.)"
2015-11-05T08:39:56+00:00,689159184,689149353,0,Bgwhite,Embezzlement,Do [[Wikipedia:GENFIXES|general fixes]] and cleanup. - using [[Project:AWB|AWB]]
2017-03-13T23:51:13+00:00,770194269,749118967,0,Adamaero,Embezzlement,/* Embezzlement versus larceny */
2018-05-26T06:32:55+00:00,843007362,842501425,0,PriceDL,Embezzlement,Reverted 1 [[WP:AGF|good faith]] edit by [[Special:Contributions/68.119.205.211|68.119.205.211]] using [[WP:STiki|STiki]]
2007-12-24T19:49:40+00:00,180003261,180002965,0,76.254.0.185,Embezzlement,
2013-01-21T23:23:49+00:00,534239672,532964024,0,ProfessorTofty,Embezzlement,
2011-12-17T19:18:16+00:00,466380004,466236008,0,71.175.185.178,Embezzlement,/* Methods of embezzlement */
2007-06-08T10:30:33+00:00,136803250,136802743,0,201.51.246.214,Embezzlement,"Removed reference to ""dollars"" per Wikipedia:WikiProject_Countering_systemic_bias"
2015-04-26T15:04:19+00:00,659302083,658152632,0,2001:E68:540B:AF4B:F279:59FF:FEAC:6A14,Embezzlement,
2020-11-26T20:12:03+00:00,990839798,990836305,0,Numbersinstitute,Embezzlement,/* United States */ Reference edited with [[Wikipedia:ProveIt|ProveIt]]. Added worldwide statistics
2011-08-21T13:18:21+00:00,445983927,443306818,0,James500,Embezzlement,/* Safeguards against embezzlement */ England and Wales
2009-03-04T16:36:25+00:00,274953056,274913016,0,SmackBot,Embezzlement,Date maintenance tags and general  fixes
2006-07-28T12:16:12+00:00,66338519,65303257,0,דניאל צבי,Embezzlement,+he
2015-05-07T15:17:35+00:00,661263722,661263719,0,ClueBot NG,Embezzlement,"Reverting possible vandalism by [[Special:Contributions/209.68.90.14|209.68.90.14]] to version by 2001:E68:540B:AF4B:F279:59FF:FEAC:6A14. False positive? [[User:ClueBot NG/FalsePositives|Report it]]. Thanks, [[User:ClueBot NG|ClueBot NG]]. (2226229) (Bot)"
2014-08-09T10:38:45+00:00,620487767,619966467,0,EmausBot,Embezzlement,"Bot: Migrating 1 interwiki links, now provided by [[Wikipedia:Wikidata|Wikidata]] on [[d:Q157833]]"
2009-02-17T23:42:50+00:00,271454522,271256567,0,Zorrobot,Embezzlement,robot  Adding: [[no:Underslag]]
2014-11-01T03:17:53+00:00,631969262,631656067,0,Deepred6502,Embezzlement,/* See also */
2019-02-18T15:09:55+00:00,883934898,883934873,0,Ealdgyth,Embezzlement,/* References */ authority control
2014-03-12T00:06:44+00:00,599213099,598078588,0,70.50.151.11,Embezzlement,
2008-11-14T21:37:09+00:00,251845431,251845299,0,Ron Paul...Ron Paul...,Embezzlement,
2011-10-15T11:37:27+00:00,455675003,453876752,0,خالقیان,Embezzlement,/* See also */  embezzlement in Iran
2010-11-22T04:13:21+00:00,398184509,398184497,0,ClueBot NG,Embezzlement,"Reverting possible vandalism by [[Special:Contributions/12.204.194.2|12.204.194.2]] to version by Lawrencekhoo. Questions, comments, complaints -> [[User:ClueBot NG/B|BRFA]] Thanks, [[User:ClueBot NG|ClueBot NG]]. (52034) (Bot)"
2022-02-13T02:15:05+00:00,1071518595,1071491599,0,Bawanio,Embezzlement,{{Types of crime}}
2020-09-28T06:53:48+00:00,980750062,980749794,0,JPxG,Embezzlement,Reverted edits by [[Special:Contribs/2600:8800:180:6C00:2560:B624:6AD4:D2A0|2600:8800:180:6C00:2560:B624:6AD4:D2A0]] ([[User talk:2600:8800:180:6C00:2560:B624:6AD4:D2A0|talk]]) to last version by Kaltenmeyer
2020-10-20T00:01:34+00:00,984412902,980750062,0,2601:282:847F:5250:2C71:3929:81F8:DF80,Embezzlement,"Within [[criminal conversion|conversion]], it clearly states that Criminal Conversion and Theft differ in that intent to deprive property owner is absent in CC. Please, correct criminal conversion if erroneous or approve this fix."
2019-10-17T19:07:41+00:00,921764721,920313620,0,71.234.182.106,Embezzlement,refspam
2006-06-30T10:49:25+00:00,61354233,60191331,0,24.131.238.34,Environmentalism,/* External links */ - added envirolink.org
2020-04-08T10:23:15+00:00,949755638,948180364,0,SS49,Environmentalism,date formats per [[MOS:DATEFORMAT]] by [[WP:MOSNUMscript|script]]
2008-10-05T03:25:58+00:00,243094363,240818660,0,Zochan,Estadio Nacional Julio Martínez Prádanos,
2013-09-04T15:59:55+00:00,571526905,570979880,0,201.214.105.236,Estadio Nacional Julio Martínez Prádanos,/* Use as pseudo-prison camp */
2019-03-06T01:35:58+00:00,886400078,886400045,0,Freeknowledgecreator,Explaining Hitler,tweak lead
2008-12-04T10:44:22+00:00,255818676,251740719,0,Duffbeerforme,Falls Festival,
2010-07-01T06:16:34+00:00,371155010,370217566,0,TempestSA,Falls Festival,Fix column misalignment
2010-06-30T22:58:29+00:00,371103650,368539191,0,AbsoluteDann,Festival Hall (Melbourne),/* As a concert venue */ Removed references to upcoming shows which are now past.
2016-04-25T00:57:43+00:00,716977211,716976937,0,Mitch Ames,Festival Hall (Melbourne),/* As a concert venue */ [[WP:NOTDIRECTORY]]
2016-03-01T21:44:49+00:00,707801800,697945272,0,198.169.189.229,Fiat money,/* Precious metals */
2016-03-24T02:15:13+00:00,711649604,709604505,0,Drdpw,Fiat money,modification as per [[MOS:BOLDTITLE]]
2010-08-13T22:41:07+00:00,378787177,377836677,0,VolkovBot,Fiat money,robot Removing: [[de:Fiat Money]]
2012-03-05T05:51:22+00:00,480275206,480115263,0,Robert Brockway,Fiat money,There are many currencies called 'the dollar'
2016-01-03T00:10:42+00:00,697945272,697944999,0,Ladislav Mecir,Fiat money,remove disputable adverb
2015-08-28T07:46:10+00:00,678255372,670495170,0,Hamiltondaniel,Fiat money,
2012-09-23T01:02:30+00:00,514097964,514097880,0,Targaryen,Fiat money,/* Loss of backing */
2009-05-05T19:53:16+00:00,288117275,288116688,0,Quebec99,Fiat money,/* Criticism */ (See WP:REFB#Inserting a reference)
2006-11-15T06:57:56+00:00,87938155,87925951,0,Kguirnela,Fiat money,/* See also */
2019-08-21T01:05:19+00:00,911768893,911095789,0,WP Ludicer,Fiat money,/* 20th century */
2008-04-29T17:15:13+00:00,209035106,208934750,0,JMF,Fiat money,Not opininion and needed for next sentence.  But a citation would be good.  The value of the whole article is undermined by the number of unsupported assertions in it.
2016-08-18T11:36:41+00:00,735065006,735040856,0,Prosopon,Fiat money,/* Treatment in economics */ better term
2019-09-26T08:58:49+00:00,917956567,806781027,0,John of Reading,File:Michael Charlton.jpg,"/* Fair use for [[British television Apollo 11 coverage]] */Typo fixing, replaced: It's omission → Its omission"
2011-05-21T21:28:14+00:00,430254777,430254755,0,Armbrust,File:Michael Charlton.jpg,"moved [[File:Michael Crichton.jpg]] to [[File:Michael Charlton.jpg]]: using [[User:Splarka/ajaxfilemove.js]];This photo depicts BBC reporter Michael Charlton covering the Apollo 11 mission, not the author Michael Crichton, and should be renamed accor..."
2016-04-27T15:55:32+00:00,717419143,717375916,0,Yamaguchi先生,Firozpur,"Changed protection level of Firozpur: Persistent [[WP:Block#Evasion of blocks|block evasion]] ([Edit=Require autoconfirmed or confirmed access] (expires 15:55, 27 October 2016 (UTC)) [Move=Require administrator access] (indefinite))"
2022-09-25T18:05:53+00:00,1112308273,1112273516,0,Venkat TL,Firozpur,Reverting edit(s) by [[Special:Contributions/Bhullarpb05|Bhullarpb05]] ([[User_talk:Bhullarpb05|talk]]) to rev. 1109236437 by TheEpTic: Vandalism (from [[WP:UCP|contribs]]) [[w:en:WP:RW|(RW 16.1)]]
2021-03-23T15:24:20+00:00,1013806769,934825820,0,Redrose64,Flying Dutchman (train),/* References */ rm parent cats
2019-07-29T04:01:54+00:00,908344705,877564636,0,Xufanc,Fon,+1
2009-02-26T09:01:43+00:00,273387937,272797075,0,Rjwilmsi,Flying Dutchman (train),[[User:Rjwilmsi#Other_fixes|gen fixes]]:(0) using [[Project:AutoWikiBrowser|AWB]]
2012-10-05T14:19:04+00:00,516152961,516152403,0,David Gerard,Fon,
2015-01-30T17:27:30+00:00,644869591,644869463,0,96.36.104.238,Food and drink prohibitions,/* Camels */
2013-12-12T22:01:54+00:00,585811268,584854379,0,Wheeke,Food and drink prohibitions,removed [[Category:Food and drink]]; added [[Category:Food culture]] using [[WP:HC|HotCat]]
2017-03-29T07:43:33+00:00,772774878,760818345,0,66.222.5.9,Ford Tempo,/* End of production */Fixed typo.
2012-09-27T03:12:15+00:00,514748219,508278554,0,Kitsunegami,Ford Tempo,Added paragraph breaks. Clarified. Fixed capitalization. Fixed grammar. Corrected hyphens to dashes. Added missing commas. Moved most of overlong intro into new section. Other minor fixes.
2014-02-19T15:28:18+00:00,596193034,596192489,0,202.159.141.151,Fractional-reserve banking,/* Criticisms of fractional reserve banking */  adding supporting reference
2022-07-12T17:20:06+00:00,1097792000,1097786957,0,SPECIFICO,Fractional-reserve banking,"Undid revision 1097786957 by [[Special:Contributions/67.180.143.89|67.180.143.89]] ([[User talk:67.180.143.89|talk]]) Please use the talk page. This new wording gives the impression that ""banks don't have enough money"" or something -- a bad misimpression for our readers. It should be easy to adjust this language. Also, be aware that the lead must reflect sourced content in the article text. New ideas or explanations cannot first be introduced into the lead."
2006-06-25T15:24:03+00:00,60498632,60481506,0,Terjepetersen,Fractional-reserve banking,/* Influence of central banks */ - revert
2018-08-24T05:06:42+00:00,856289486,851689526,0,K1812,Fractional-reserve banking,/* History */ link
2016-04-29T11:34:34+00:00,717731929,717731281,0,Lawrencekhoo,Fractional-reserve banking,"/* Money supplies around the world */ rm unnecessary, tagged, and thus far uncited statements"
2013-04-08T15:43:01+00:00,549342380,549341918,0,81.86.69.36,Fractional-reserve banking,/* Money supplies around the world */
2013-02-12T02:37:50+00:00,537807573,537807456,0,70.174.117.54,Fractional-reserve banking,/* Example of deposit multiplication */
2009-05-26T20:22:01+00:00,292515334,291918250,0,Jonverve,Fractional-reserve banking,/* References */
2008-07-07T12:07:11+00:00,224120722,223550705,0,Edward,Fractional-reserve banking,link [[liquidity risk]] using [[User:Edward/Find link|Find link]]
2011-04-27T21:17:53+00:00,426275432,426274039,0,BigK HeX,Fractional-reserve banking,"Undid revision 426274039 by [[Special:Contributions/Andrewedwardjudd|Andrewedwardjudd]] ([[User talk:Andrewedwardjudd|talk]]) rv, for same unresolved issues on talk page"
2017-10-01T13:51:29+00:00,803265039,803238450,0,Famspear,Fractional-reserve banking,move the adjective over a bit
2010-11-23T13:09:29+00:00,398434516,396507216,0,Diza,Fractional-reserve banking,"/* Criticism */ removing merge request, as vote failed."
2020-04-28T14:59:23+00:00,953686428,953677512,0,SPECIFICO,Fractional-reserve banking,Former version -- although it could certainly be improved -- was clearer and more concise. Also rv incorrect unsourced definition of velocity of money.  Better wording for this section can be discussed on talk.
2010-04-02T22:29:58+00:00,353626087,353195697,0,96.50.15.189,Fractional-reserve banking,/* History */
2010-09-19T13:21:11+00:00,385718633,385710141,0,Skyerise,Fractional-reserve banking,'most' even better
2006-11-16T00:45:05+00:00,88104843,88104428,0,86.29.128.187,Fractional-reserve banking,/* Inadequate government regulation */
2009-09-28T06:58:36+00:00,316637023,316519676,0,72.130.189.190,Fractional-reserve banking,
2006-09-21T21:43:38+00:00,77055877,77037509,0,Com2kid,Fractional-reserve banking,reat->rest
2015-03-10T07:19:59+00:00,650725113,650724245,0,Lawrencekhoo,Fractional-reserve banking,"/* top */ essential part of the process, an institution that doesn't take in deposits is not practicing FRB"
2022-04-08T02:47:01+00:00,1081544187,1081464539,0,SPECIFICO,Fractional-reserve banking,Undid revision 1081464539 by [[Special:Contributions/Yanivos|Yanivos]] ([[User talk:Yanivos|talk]]) [[Help:Reverting|Reverting]] [[Wikipedia:Vandalism|vandalism]] or test edit
2006-11-07T03:51:02+00:00,86201754,86200648,0,24.241.191.158,Fractional-reserve banking,
2015-11-21T15:45:21+00:00,691689157,691688388,0,SPECIFICO,Fractional-reserve banking,"Undid revision 691688388 by [[Special:Contributions/WouNur|WouNur]] ([[User talk:WouNur|talk]]) SPA returning from 3RR block, promoting fringe narrative.  Use talk."
2011-03-14T11:27:58+00:00,418765871,418764827,0,Lawrencekhoo,Fractional-reserve banking,edit lead
2011-05-29T14:59:47+00:00,431495031,431492366,0,Orangedolphin,Fractional-reserve banking,strictly less than unity...
2013-09-05T14:26:48+00:00,571649009,571563201,0,123.203.195.18,Fractional-reserve banking,
2018-07-23T23:35:54+00:00,851689526,851687269,0,Гармонический Мир,Fractional-reserve banking,
2012-02-03T12:53:55+00:00,474778621,474730402,0,Famspear,Fractional-reserve banking,[[Help:Reverting|Reverted]] edits by [[Special:Contributions/90.190.47.64|90.190.47.64]] ([[User talk:90.190.47.64|talk]]) to last version by John Shandy`
2012-03-12T01:36:45+00:00,481437529,481435870,0,Ravensfire,Fractional-reserve banking,Undid revision 481435870 by [[Special:Contributions/AmourReflection|AmourReflection]] ([[User talk:AmourReflection|talk]])get concensus on talk page before re-adding.
2016-06-04T02:52:12+00:00,723614842,723564449,0,Lawrencekhoo,Fractional-reserve banking,Reverted to revision 723564295 by [[Special:Contributions/IntelligentName|IntelligentName]] ([[User talk:IntelligentName|talk]]): Monetary policy can also be used to speed up inflation. ([[WP:TW|TW]])
2008-05-20T17:31:13+00:00,213742266,213742069,0,90.241.44.21,Fractional-reserve banking,/* Money supplies around the world */ image size - clearer
2021-10-25T14:06:11+00:00,1051769313,1051430423,0,SPECIFICO,Fractional-reserve banking,/* Criticisms */  Content is not all
2012-06-08T03:37:31+00:00,496541696,496527625,0,Ilikecod,Fractional-reserve banking,Undid revision 496527625 by [[Special:Contributions/Famspear|Famspear]] ([[User talk:Famspear|talk]])
2018-11-23T04:52:10+00:00,870204029,869766839,0,220.101.14.58,Fractional-reserve banking,definition does not need to include regulation.  lots of frbs were not regulated (scotland).
2009-12-21T08:31:25+00:00,333014131,333013991,0,Lawrencekhoo,Fractional-reserve banking,/* Money creation */
2020-04-05T17:00:33+00:00,949289103,946509551,0,MusikBot,Fractional-reserve banking,Removing protection templates from unprotected page ([[User:MusikBot/FixPP/FAQ|more info]])
2009-04-12T19:58:09+00:00,283416181,283338801,0,Smarkflea,Fractional-reserve banking,fix 2 isbn #
2014-09-02T07:21:07+00:00,623824107,623823904,0,85.218.104.121,Fractional-reserve banking,/* See also */ add Chicago Plan
2015-10-22T02:30:04+00:00,686906177,686807976,0,59.167.67.161,Fractional-reserve banking,/* See also */
2007-12-28T04:56:45+00:00,180556353,180555739,0,Gregalton,Fractional-reserve banking,"/* More examples */ Okay, I'll just delete the part that is wrong and the text explaining the wrong example; feel free to fix it"
2018-07-08T21:12:25+00:00,849416237,849414721,0,SPECIFICO,Fractional-reserve banking,Undid revision 849414721 by [[Special:Contributions/Roman-Anton-PhD-MBA|Roman-Anton-PhD-MBA]] ([[User talk:Roman-Anton-PhD-MBA|talk]]) [[Help:Reverting|Reverting]] unexplained content removal Removing unsourced content
2014-05-25T01:19:11+00:00,610014311,609963327,0,Kndimov,Fractional-reserve banking,/* Criticisms of textbook descriptions of the monetary system */ Added period. It's outside the quotation marks because the sentence goes on in the source.
2006-08-07T02:44:34+00:00,68117448,66841343,0,Thepatriots,Fractional-reserve banking,/* History */
2008-10-22T18:22:48+00:00,246996377,246919372,0,Hauskalainen,Fractional-reserve banking,"This into was better ... explaining liquidity and universality, Removes reference to Custom which implies its a choice"
2013-07-07T14:00:23+00:00,563240132,563218883,0,Famspear,Fractional-reserve banking,[[Help:Reverting|Reverted]] edits by [[Special:Contributions/120.60.161.180|120.60.161.180]] ([[User talk:120.60.161.180|talk]]) to last version by Srich32977
2021-02-26T05:40:29+00:00,1009005546,1009005502,0,Oshwah,Fractional-reserve banking,Reverted edits by [[Special:Contribs/103.67.158.86|103.67.158.86]] ([[User talk:103.67.158.86|talk]]) to last version by Rubenbarreto
2018-09-23T14:53:02+00:00,860857165,860656642,0,Bolarno,Fractional-reserve banking,Undid revision 860656642 by [[Special:Contributions/Lawrencekhoo|Lawrencekhoo]] ([[User talk:Lawrencekhoo|talk]])
2010-05-07T13:53:54+00:00,360716911,360594429,0,Ravensfire,Fractional-reserve banking,Undid revision 360438376 by [[Special:Contributions/$hady$hysterGeithner|$hady$hysterGeithner]] ([[User talk:$hady$hysterGeithner|talk]])rv sock
2014-03-14T14:22:14+00:00,599585145,599575614,0,Lawrencekhoo,Fractional-reserve banking,Undid revision 599575614 by [[Special:Contributions/Reissgo|Reissgo]] ([[User talk:Reissgo|talk]]) Please don't remove referenced material and replace with referenced OR
2011-01-31T01:01:37+00:00,411070271,410588853,0,Yobot,Fractional-reserve banking,"[[WP:CHECKWIKI]] error 61 fixes + [[WP:GENFIXES|general fixes]], References after punctuation per [[WP:REFPUNC]] and [[WP:PAIC]] using [[Project:AWB|AWB]] (7510)"
2018-01-11T10:45:29+00:00,819806684,819806121,0,Reissgo,Fractional-reserve banking,"It's bold-revert-discuss, not bold-revert-reinsert ! You should know better."
2020-10-10T00:12:34+00:00,982732896,979127101,0,Dawnseeker2000,Fractional-reserve banking,"[[Template:Use dmy dates|date format audit]], [[Wikipedia:Manual of Style/Words to watch|words to watch for]]"
2010-01-20T16:21:42+00:00,338975938,338956071,0,Lawrencekhoo,Fractional-reserve banking,Reverted 1 edit by [[Special:Contributions/82.19.29.47|82.19.29.47]] identified as [[WP:VAND|vandalism]] to last revision by [[User:Ravensfire|Ravensfire]]. ([[WP:TW|TW]])
2015-09-29T17:27:14+00:00,683335654,680198723,0,Crywalt,Fractional-reserve banking,"/* Criticisms of fractional-reserve banking */Removed, excess comma."
2006-10-26T22:46:06+00:00,83936780,83682442,0,67.49.42.239,Fractional-reserve banking,
2011-06-19T15:48:04+00:00,435107259,434174669,0,Abject Normality,Fractional-reserve banking,/* Criticism */ added environmental concerns with refs
2014-07-26T07:50:05+00:00,618515872,618406140,0,Reissgo,Fractional-reserve banking,see talk
2013-11-30T08:17:43+00:00,583885678,583750107,0,Nemo bis,Fractional-reserve banking,"Changed visibility of the article feedback tool on ""[[Fractional reserve banking]]"" ([Visibility=Enable for autoconfirmed users only] (expires 08:17, 30 November 2013 (UTC)))"
2020-11-22T17:08:35+00:00,990070870,988523987,0,Ohnoitsjamie,Fractional-reserve banking,this topic is too broad for that
2013-03-25T11:41:28+00:00,546891780,546884446,0,SPECIFICO,Fractional-reserve banking,Undid revision 546884446 by [[Special:Contributions/2602:306:BCBD:5D40:D8C6:80EB:6FE5:5419|2602:306:BCBD:5D40:D8C6:80EB:6FE5:5419]] ([[User talk:2602:306:BCBD:5D40:D8C6:80EB:6FE5:5419|talk]]) Removing unsourced content
2016-12-05T13:56:04+00:00,753151957,753145019,0,Reissgo,Fractional-reserve banking,/* Types of money */
2008-03-01T14:44:55+00:00,195120446,195095683,0,Arronax50,Fractional-reserve banking,/* External links */
2010-03-09T19:23:16+00:00,348796646,348793881,0,Orangedolphin,Fractional-reserve banking,
2021-07-01T10:11:49+00:00,1031390132,1031387705,0,Reissgo,Fractional-reserve banking,Bold - Revert - Discuss
2007-04-12T20:24:18+00:00,122309874,121777049,0,Masteryao,Fractional-reserve banking,"no need to italicize the ""many times""."
2011-01-04T15:21:00+00:00,405897691,405664333,0,98.235.130.225,Fractional-reserve banking,/* External links */
2009-10-16T15:00:36+00:00,320220467,320220167,0,Rawjapan,Fractional-reserve banking,/* Exacerbation of the business cycle */
2012-03-13T17:13:11+00:00,481709324,481437529,0,LindsayH,Fractional-reserve banking,"Clean up, replaced: it's own → its own using [[Project:AWB|AWB]]"
2014-04-29T01:31:49+00:00,606265333,606259939,0,Srich32977,Fractional-reserve banking,Copyedit (minor)
2019-05-26T11:04:43+00:00,898859722,898751882,0,Reissgo,Fractional-reserve banking,"Given that this idea has been thoroughly end explicitly discredited by the BoE and elsewhere, a worked example and graph are overweight."
2009-05-11T14:27:09+00:00,289258640,289251023,0,Gregalton,Fractional-reserve banking,rvt - always interesting when IPs from regulated commercial banks claim entire system is corrupt and all banks insolvent
2012-06-22T13:00:29+00:00,498826667,498811810,0,Alextimofeyev,Fractional-reserve banking,
2017-01-24T00:43:31+00:00,761642622,761269801,0,Lawrencekhoo,Fractional-reserve banking,/* top */ use plain language
2007-09-02T07:21:53+00:00,155170131,154475771,0,AlleborgoBot,Fractional-reserve banking,robot  Adding: [[it:Riserva frazionaria]]
2011-06-24T08:56:58+00:00,435946114,435749911,0,Atlantia,Fractional-reserve banking,
2013-01-27T16:41:18+00:00,535190171,535121403,0,Ravensfire,Fractional-reserve banking,Undid revision 535121403 by [[Special:Contributions/123.243.49.142|123.243.49.142]] ([[User talk:123.243.49.142|talk]])See [[WP:ELNO]]
2008-08-12T11:01:25+00:00,231428674,231416362,0,Gregalton,Fractional-reserve banking,[[WP:UNDO|Undid]] revision 231416362 by [[Special:Contributions/77.44.41.32|77.44.41.32]] ([[User talk:77.44.41.32|talk]])
2012-10-09T06:28:32+00:00,516774555,516773504,0,Lawrencekhoo,Fractional-reserve banking,Lead functions as overview
2007-05-02T03:21:44+00:00,127595987,125197324,0,69.201.151.186,Fractional-reserve banking,/* Business Cycle */
2014-03-29T21:48:57+00:00,601877563,601877408,0,SPECIFICO,Fractional-reserve banking,/* Criticisms of standard textbook descriptions of fractional reserve banking */ Conform section title to article text
2012-03-16T22:50:35+00:00,482273199,481709324,0,AmourReflection,Fractional-reserve banking,"/* Criticisms */ Criticism made by Henry Ford added (Chapter 61, Volume 3, THE DEARBORN INDEPENDENT, issue of 16 July 1921, ""The International Jew"")"
2010-04-14T23:32:01+00:00,356066147,355279134,0,203.63.130.65,Fractional-reserve banking,/* Criticism */ typo
2009-08-10T12:24:08+00:00,307152147,307151307,0,MrVanBot,Fractional-reserve banking,robot Removing: [[ru:Банковский мультипликатор]]
2017-12-11T07:35:11+00:00,814844992,803265039,0,InternetArchiveBot,Fractional-reserve banking,Rescuing 1 sources and tagging 0 as dead. #IABot (v1.6.1) ([[User:Balon Greyjoy|Balon Greyjoy]])
2016-04-18T12:16:14+00:00,715865398,715865363,0,HandsomeFella,Fractional-reserve banking,/* See also */
2011-05-13T08:51:18+00:00,428894065,428886250,0,Lawrencekhoo,Fractional-reserve banking,"Reverted 1 edit by [[Special:Contributions/Andrewedwardjudd|Andrewedwardjudd]] ([[User talk:Andrewedwardjudd|talk]]); This edit is confusing rather than clarifying, suggest discussion on the talk page. ([[WP:TW|TW]])"
2016-10-03T16:48:16+00:00,742424202,740694667,0,Melarish,Fractional-reserve banking,The Mervyn King quote has too much jargon that the average reader will need explaining
2010-10-13T06:44:25+00:00,390452240,390444021,0,Bobrayner,Fractional-reserve banking,Reverted 1 edit by [[Special:Contributions/JKoulouris|JKoulouris]] identified as [[WP:VAND|vandalism]] to last revision by [[Special:Contributions/87.113.55.177|87.113.55.177]]. ([[WP:TW|TW]])
2008-12-25T02:27:38+00:00,259996293,259995988,0,Alansohn,Fractional-reserve banking,Reverted edits by [[Special:Contributions/221.221.165.44|221.221.165.44]] to last version by 87.158.205.23 ([[WP:HG|HG]])
2018-03-22T23:45:06+00:00,831947417,831942701,0,Reissgo,Fractional-reserve banking,Undoing revert because reasons given are such utter nonsense it verges on vandalism.
2021-03-31T22:50:54+00:00,1015343257,1014711681,0,Tom.Reding,Fractional-reserve banking,"+{{[[Template:Authority control|Authority control]]}} ([[d:Q123642|1 ID]] from [[Wikidata]]), [[WP:GenFixes]] on"
2009-07-26T17:36:01+00:00,304324343,301878094,0,Strikehold,Fractional-reserve banking,/* How it works */
2022-08-13T22:55:59+00:00,1104276213,1098615723,0,Kind Tennis Fan,Fractional-reserve banking,[[Wikipedia:MOSNUMscript|script]]-assisted date audit and style fixes per [[MOS:NUM]]
2013-03-17T00:17:45+00:00,544791741,543929168,0,RoySmith,Fractional-reserve banking,/* How it works */ typo
2022-06-16T09:39:42+00:00,1093394307,1090588168,0,Inflation'sLastLaugh,Fractional-reserve banking,Minor edit to take into account unpredicted (and impossible to predict) current events
2019-11-21T02:43:31+00:00,927220647,927220365,0,Lawrencekhoo,Fractional-reserve banking,/* top */
2011-11-23T20:02:23+00:00,462150809,461510997,0,122.162.90.122,Fractional-reserve banking,monetary reform
2016-10-21T18:23:53+00:00,745537286,745537259,0,ClueBot NG,Fractional-reserve banking,"Reverting possible vandalism by [[Special:Contribs/99.236.57.237|99.236.57.237]] to version by Melarish. [[WP:CBFP|Report False Positive?]] Thanks, [[WP:CBNG|ClueBot NG]]. (2806165) (Bot)"
2008-03-13T14:00:16+00:00,197960086,197958309,0,Childhoodsend,Fractional-reserve banking,/* Liquidity and capital management for a bank */
2011-04-01T02:18:12+00:00,421755365,421287317,0,Clementi,Fractional-reserve banking,/* Formula */
2012-02-16T01:56:22+00:00,477114387,477114371,0,ClueBot NG,Fractional-reserve banking,"Reverting possible vandalism by [[Special:Contributions/24.186.231.91|24.186.231.91]] to version by JKD.trinitas. False positive? [[User:ClueBot NG/FalsePositives|Report it]]. Thanks, [[User:ClueBot NG|ClueBot NG]]. (889748) (Bot)"
2021-06-11T08:19:50+00:00,1028003294,1027985509,0,SPECIFICO,Fractional-reserve banking,/* Criticisms */ discussions of pedagogy are not criticisms of banking
2017-01-03T11:44:33+00:00,758087469,757139906,0,Solarius,Fractional-reserve banking,"Removed an extra ""."""
2020-02-13T16:13:48+00:00,940614864,940614655,0,Amisom,Fractional-reserve banking,/* Criticisms of textbook descriptions of the monetary system */
2012-10-16T11:20:19+00:00,518102409,518098190,0,Lawrencekhoo,Fractional-reserve banking,/* History */
2017-06-21T21:47:41+00:00,786837969,783070319,0,Magic links bot,Fractional-reserve banking,Replace [[Help:Magic links|magic links]] with templates per [[Special:Permalink/772743896#Future of magic links|local RfC]] and [[:mw:Requests for comment/Future of magic links|MediaWiki RfC]]
2022-01-12T14:20:21+00:00,1065236885,1065231906,0,JBW,Fractional-reserve banking,"Reverting good-faith but mistaken change. The whole article is not commentary, most of it is factual reporting; this section,  by contrast,  is all about commentary that people have made; not all of what is mentioned in this section is criticism; whether the same section heading appears in other articles has no bearing on whether it is or is not appropriate in this context in this article."
2013-09-27T21:56:18+00:00,574795869,574776174,0,Reissgo,Fractional-reserve banking,Wikipedia is supposed to be collaborative. I started a thread on the talk page on this. Please discuss.
2020-07-15T15:40:17+00:00,967831192,965888745,0,Otway1978,Fractional-reserve banking,/* Hypothetical example of a bank balance sheet and financial ratios */
2009-04-15T12:11:47+00:00,283981339,283416181,0,137.56.143.28,Fractional-reserve banking,/* See also */
2016-08-28T10:15:08+00:00,736562419,736562184,0,Graham87,Fractional-reserve banking,"Undid revision 730253205 by [[Special:Contributions/Akoako88|Akoako88]] ([[User talk:Akoako88|talk]]), more of the same thing"
2009-01-22T17:58:31+00:00,265745093,265729777,0,Lulolean,Fractional-reserve banking,"/* Benefits of fractional reserve banking */ Tightened the text, focused more on benefits and less on criticism. Added paragraph with additional benefits from mainstream point of view."
2011-10-15T22:38:18+00:00,455758180,455748554,0,The Four Deuces,Fractional-reserve banking,Remove POV OR - see talk page
2013-05-25T18:53:21+00:00,556764469,556756294,0,Srich32977,Fractional-reserve banking,Cleaned up using [[WP:AutoEd|AutoEd]]
2014-07-05T11:35:32+00:00,615683750,615682863,0,Reissgo,Fractional-reserve banking,/* External links */
2013-08-13T19:03:30+00:00,568396948,568393378,0,Goethean,Fractional-reserve banking,/* Criticisms */ this seems like a run-on sentence. trying to fix.
2013-01-06T21:28:46+00:00,531679640,531679258,0,Peash,Fractional-reserve banking,/* Regulation */
2016-03-02T10:16:33+00:00,707883636,707779743,0,Doubledoc,Fractional-reserve banking,Inserted reference to current political successes in putting full-reserve banking into practice.
2014-08-13T17:36:45+00:00,621089796,621081220,0,Reissgo,Fractional-reserve banking,Undid revision 621081220 do not edit war. please use talk.
2016-08-05T11:14:56+00:00,733101460,730300381,0,120.155.59.152,Fractional-reserve banking,/* See also */
2010-05-24T16:37:37+00:00,363950648,363414208,0,DataWraith,Fractional-reserve banking,German page was deleted
2016-01-03T17:11:23+00:00,698041506,698025976,0,Reissgo,Fractional-reserve banking,Removing non RS links.
2011-12-08T02:34:02+00:00,464687620,464686689,0,Ravensfire,Fractional-reserve banking,Undid revision 464686689 by [[Special:Contributions/60.226.161.39|60.226.161.39]] ([[User talk:60.226.161.39|talk]])rv unsourced and POV changes
2014-03-06T05:05:21+00:00,598358500,598301282,0,Steeletrap,Fractional-reserve banking,"/* Criticisms of fractional reserve banking */ rmv Friedman stuff. He is not against fractional reserve banking per se. He is criticizing current FRB systems. Thus it is not a ""criticism of FRB"""
2011-12-23T22:33:19+00:00,467407098,464687620,0,TheSoundAndTheFury,Fractional-reserve banking,/* History */ Let's fix up some language here.
2015-07-16T06:27:40+00:00,671668587,670047685,0,123.203.195.18,Fractional-reserve banking,comma to avoid confusion
2012-07-24T17:54:06+00:00,503981421,503853133,0,204.77.163.4,Fractional-reserve banking,"Fix typo (""equatl"")"
2012-12-28T20:33:13+00:00,530191949,529290139,0,Prettyladieslover,Fractional-reserve banking,"If everywhere, then no need to say it then --  fundimental lending theory issue is that 100 % fractional banking is impossible, and therefore, all lending wordwide is some type of fractional reserve banking by definition, hence the edit."
2015-12-15T15:13:10+00:00,695363595,695362977,0,SPECIFICO,Fractional-reserve banking,Undid revision 695362977 by [[Special:Contributions/Lyinglike|Lyinglike]] ([[User talk:Lyinglike|talk]])rv promotion
2022-07-04T13:54:22+00:00,1096440563,1096438921,0,Firefangledfeathers,Fractional-reserve banking,"Undid revision 1096438921 by [[Special:Contributions/115.64.80.44|115.64.80.44]] ([[User talk:115.64.80.44|talk]]) - this is a topic about which there are plentiful high-quality secondary sources; this much text based on primary and dubious sources is undue. The ""proper processes"" to follow when changes are disputed is talk page engagement, not edit warring."
2019-06-19T01:41:23+00:00,902469361,898859722,0,103.35.129.38,Fractional-reserve banking,"You cannot have more than a fraction.  That would be full reserve.  ""at least"" inappropriate and misleading."
2014-03-27T10:44:03+00:00,601487810,601487352,0,Reissgo,Fractional-reserve banking,Not sure I can find a reference for statement so removed it (I still suspect that its true though)
2021-09-15T03:22:57+00:00,1044412669,1044412335,0,Avatar317,Fractional-reserve banking,"Reverted recently added UNSOURCED, good faith [[WP:GF]] edit.  Wikipedia does not allow Original Research.  Please see: [[WP:OR]].  All statements must be sourced from Reliable Sources [[WP:RS]] - I don't see any sourcing for that in this article.  Please remember that the lead is supposed to summarize the article; [[WP:LEADFOLLOWSBODY]]"
2012-09-28T16:19:07+00:00,515022449,514926589,0,Byelf2007,Fractional-reserve banking,"more consistent with other articles , ""how it works"" is unprofessional , i think the function should be explained before the nuts/bolts"
2010-01-28T22:12:41+00:00,340604971,338975938,0,Gaytan,Fractional-reserve banking,/* Exacerbation of the business cycle */ Many Austrians disagree with Selgin's views on fractional-reserve banking
2021-01-13T12:06:13+00:00,1000070538,1000070362,0,Vezzifra,Fractional-reserve banking,/* Economic function */
2007-08-08T12:07:14+00:00,149961707,148567796,0,78.146.251.35,Fractional-reserve banking,fix typo
2010-02-18T17:36:46+00:00,344850840,343792038,0,Sumdog,Fractional-reserve banking,Fixed broken link (M1 must have been moved into Money Supply Emperical Measures Section)
2020-01-26T02:49:54+00:00,937607988,937521242,0,Jbh2wiki,Fractional-reserve banking,"In the setence beginning ""In order to mitigate the impact of bank failures and financial crises"", I corrected (2) the punctuation after ""financial crises"" by replacing a period with a comma, and (2) inconsistent use of the infinitive in a multi-clause sequence by inserting ""to"" before ""impose""."
2015-10-12T08:19:06+00:00,685337571,685330286,0,Flyer22 Frozen,Fractional-reserve banking,Reverted 1 edit by [[Special:Contributions/61.177.60.226|61.177.60.226]] identified as test/vandalism using [[WP:STiki|STiki]]
2009-03-12T07:40:09+00:00,276700789,276700665,0,Vexorg,Fractional-reserve banking,removing until re-written
2006-09-20T19:21:27+00:00,76838716,76734742,0,Gigs,Fractional-reserve banking,spelling
2010-04-11T05:24:46+00:00,355279134,355279070,0,Arthur Rubin,Fractional-reserve banking,[[Help:Reverting|Reverted]] edits by [[Special:Contributions/114.74.250.102|114.74.250.102]] ([[User talk:114.74.250.102|talk]]) to last version by 96.50.15.189
2020-05-24T16:24:25+00:00,958583320,958371000,0,Tbhotch,Fractional-reserve banking,Adding {{pp-protected}} ([[WP:TW|TW]])
2009-08-26T02:36:10+00:00,310087886,310087768,0,Lawrencekhoo,Fractional-reserve banking,/* History */ like this
2013-05-30T18:44:02+00:00,557560695,556764469,0,SPECIFICO,Fractional-reserve banking,/* Criticisms */ Copyedit (minor)
2018-12-18T12:26:24+00:00,874307634,874080605,0,Reissgo,Fractional-reserve banking,
2017-09-10T02:21:08+00:00,799825057,795795504,0,IntelligentName,Fractional-reserve banking,
2010-11-13T13:49:22+00:00,396507216,396505917,0,Crosbiesmith,Fractional-reserve banking,"/* History */ Rm 'Prior to the 1800s' - not in source, somewhat vague"
2008-01-08T00:00:47+00:00,182845328,182830872,0,Zenwhat,Fractional-reserve banking,Unnecessary criticism that's already covered in the [[Criticism]] section.
2012-12-09T09:28:39+00:00,527157125,527058902,0,Sargdub,Fractional-reserve banking,wikilink
2012-06-12T04:08:49+00:00,497170035,497088511,0,Lawrencekhoo,Fractional-reserve banking,clarify third factor affecting multiplier
2014-11-06T20:34:19+00:00,632737893,632631246,0,BarrelProof,Fractional-reserve banking,/* Criticisms of fractional reserve banking */ Uniformity with page name. (This was the only section of the article that was styled differently.)
2014-09-27T18:35:24+00:00,627308320,623824107,0,24.131.80.54,Fractional-reserve banking,fix link
2013-03-28T07:43:40+00:00,547404264,546891780,0,Philip Sutton,Fractional-reserve banking,/* History */  Improving te English  ~~~~
2010-09-23T14:31:24+00:00,386546180,386545848,0,Elockid,Fractional-reserve banking,{{pp-semi|small=yes}}
2022-02-10T07:21:32+00:00,1070977242,1065236885,0,173.70.52.210,Fractional-reserve banking,/* top */
2009-12-18T15:33:54+00:00,332503350,331455185,0,RjwilmsiBot,Fractional-reserve banking,/* History */fixing page range dashes using [[Project:AWB]]
2007-03-21T00:53:44+00:00,116669010,115532919,0,67.158.72.8,Fractional-reserve banking,/* Example */ m
2019-10-01T13:12:59+00:00,919029481,918072654,0,Kstone999,Fractional-reserve banking,v2.02 - Fixing innerlinks / [[WP:WCW]] project (Link equal to linktext)
2017-01-22T00:47:57+00:00,761269801,761266746,0,SPECIFICO,Fractional-reserve banking,rv SPA
2009-07-13T15:56:52+00:00,301878094,301810820,0,Lawrencekhoo,Fractional-reserve banking,[[WP:RBK|Reverted]] edits by [[Special:Contributions/76.250.131.237|76.250.131.237]] ([[User talk:76.250.131.237|talk]]) to last version by Lawrencekhoo
2016-12-10T13:01:46+00:00,754024788,753930053,0,Reissgo,Fractional-reserve banking,The idea that this official BoE document is not an RS for the information is laughable.
2007-05-14T02:24:37+00:00,130681754,130207916,0,DGGenuine,Fractional-reserve banking,"Added ""Actions"" to help explain table.  Updated paragraph to use new line numbers"
2013-09-10T23:13:08+00:00,572414442,572342520,0,AmourReflection,Fractional-reserve banking,Undid revision 572342520 by [[Special:Contributions/SPECIFICO|SPECIFICO]] ([[User talk:SPECIFICO|talk]])Discuss in Talk before undoing.
2011-01-20T21:32:01+00:00,409047725,409037435,0,Cretog8,Fractional-reserve banking,"Undid revision 409037435 by [[Special:Contributions/165.124.99.203|165.124.99.203]] ([[User talk:165.124.99.203|talk]]) Matter for discussion, take to talk, please"
2015-11-04T18:51:33+00:00,689064429,687789520,0,Ildottoreverde,Fractional-reserve banking,/* History */
2020-02-27T14:36:38+00:00,942891516,942891343,0,Ravensfire,Fractional-reserve banking,Reverted to revision 940614864 by [[Special:Contributions/Amisom|Amisom]] ([[User talk:Amisom|talk]]): Rv sock edits ([[WP:TW|TW]])
2008-09-18T07:27:18+00:00,239215467,239118965,0,Lawrencekhoo,Fractional-reserve banking,/* History */
2007-08-16T12:11:47+00:00,151589238,151538343,0,204.104.55.241,Fractional-reserve banking,
2022-07-16T17:52:52+00:00,1098615723,1098615593,0,EdJohnston,Fractional-reserve banking,Add pp-protect template
2015-01-11T13:15:37+00:00,642008482,642006794,0,AnomieBOT,Fractional-reserve banking,Dating maintenance tags: {{Citation needed}}
2010-05-28T11:05:06+00:00,364647013,364644840,0,Hipocrite,Fractional-reserve banking,[[Help:Reverting|Reverted]] edits by [[Special:Contributions/217.205.36.67|217.205.36.67]] ([[User talk:217.205.36.67|talk]]) to last version by Lawrencekhoo
2015-11-15T13:33:07+00:00,690755229,690754665,0,Lawrencekhoo,Fractional-reserve banking,/* top */ missed this
2011-10-15T00:36:30+00:00,455618811,455318496,0,FiveColourMap,Fractional-reserve banking,/* Reason for existence */ possessive. wikilink
2007-10-16T06:07:58+00:00,164896984,163593179,0,70.79.113.3,Fractional-reserve banking,/* Criticisms */ Reeks completely of OR. Removed spam link.
2014-08-25T19:31:21+00:00,622783853,622748816,0,SPECIFICO,Fractional-reserve banking,Undid revision 622748816 by [[Special:Contributions/Antonbuckleyjones|Antonbuckleyjones]] ([[User talk:Antonbuckleyjones|talk]]) Remove non-[[WP:RS]] text.  Please find reliable sources / use talk.
2013-08-01T16:16:08+00:00,566734006,566426239,0,Bgwhite,Fractional-reserve banking,Do [[Wikipedia:GENFIXES|general fixes]] and cleanup. - using [[Project:AWB|AWB]] (9369)
2010-07-27T11:55:29+00:00,375718277,375718171,0,Reconsider the static,Fractional-reserve banking,rv
2015-01-04T08:28:35+00:00,640918213,640784915,0,Reissgo,Fractional-reserve banking,too many commas
2008-09-06T21:01:24+00:00,236724105,236723787,0,XLinkBot,Fractional-reserve banking,BOT--Reverting edits by [[:en:Special:Contributions/Mrpoisson|Mrpoisson]] to revision 236719940 (rule: '\byoutube\.com' (link(s): http://www.youtube.com/watch?v=hfXavRTM4Fg&feature=related) )
2018-10-20T19:53:07+00:00,864966455,864425522,0,Mean as custard,Fractional-reserve banking,Reverted edits by [[Special:Contribs/107.77.245.5|107.77.245.5]] ([[User talk:107.77.245.5|talk]]) to last version by Bolarno
2016-05-26T10:39:49+00:00,722161484,717731929,0,MorbidEntree,Fractional-reserve banking,Disambiguated: [[fraction]] → [[fraction (mathematics)]]
2008-04-09T22:00:14+00:00,204552406,204537534,0,Chendy,Fractional-reserve banking,see discusion - it clarifies the issue
2012-11-05T14:03:20+00:00,521511330,521510937,0,124.176.79.201,Fractional-reserve banking,/* History */  Past tense for history section.  Sentences confuse present and past tense.  Grammar again.
2015-01-31T08:39:05+00:00,644960630,644517433,0,Reissgo,Fractional-reserve banking,"No sources supplied for cuba/N.korea after ""citation needed"" displayed for one month. + tweak of Islamic claim, to make it correspond better to the cited source."
2020-03-20T16:40:44+00:00,946509551,946509546,0,Cabayi,Fractional-reserve banking,Adding {{pp-sock}} ([[WP:TW|TW]])
2011-11-20T00:26:34+00:00,461510997,461509682,0,Ddd1600,Fractional-reserve banking,/* How it works */
2012-12-13T00:02:19+00:00,527781496,527157125,0,Prettyladieslover,Fractional-reserve banking,"/* Criticisms */   words are legal words and are not informative, point of view unwelcome"
2011-04-13T21:31:25+00:00,423926845,423923061,0,Andrewedwardjudd,Fractional-reserve banking,/* Alternative views */  added shortened version of Tucker quotation
2008-08-25T06:22:57+00:00,234086839,233977495,0,TruthComesFromAGunBoat,Fractional-reserve banking,"/* Criticism */  Added specific supporting text.  Note Gary North's specific use of the term ""embezzlement"" in the Preface to the Book"
2014-01-28T22:24:41+00:00,592865079,591850804,0,Erik del Toro Streb,Fractional-reserve banking,/* Example of deposit multiplication */ vector version aligned to the table
2020-12-29T16:47:03+00:00,997014759,996780732,0,Thenightaway,Free trade,study
2008-11-10T12:36:52+00:00,250857924,250784704,0,116.212.192.14,Free trade,/* History of free trade */
2017-04-08T14:10:36+00:00,774445239,772285322,0,2602:306:3365:E0E0:7CC0:81A5:3B7A:A53F,Freetown International Airport,"/* Accidents and incidents */Corrected model variant of described 737 to a -200 series, as depicted in pictures."
2008-07-21T03:43:29+00:00,226926030,226922637,0,D.c.camero,Freetown International Airport,/* External links */ Added references
2016-02-02T22:27:21+00:00,703003426,703003095,0,2601:199:101:7E09:46A:93FE:17BB:FD13,Friedrich Hayek,/* Hayek and conservatism */
2010-07-29T11:35:02+00:00,376071654,375944204,0,76.119.141.28,Friedrich Hayek,/* The Road to Serfdom */
2006-05-24T22:17:13+00:00,54964613,52859079,0,157.182.2.59,Full-reserve banking,"""no incentive to lend"" corrected to ""no incentive to store"""
2016-07-18T03:53:07+00:00,730300632,730254719,0,Famspear,Full-reserve banking,/* Views on full-reserve banking */ copyedit
2012-04-06T22:27:56+00:00,485985492,478528889,0,50.13.196.156,Full-reserve banking,"/* The case for full reserve */ ""fixed loan deposits""-> [[time deposits]]"
2015-08-12T18:05:54+00:00,675787884,673224461,0,FrescoBot,Full-reserve banking,Bot: [[User:FrescoBot/Links|link syntax]] and minor changes
2018-08-13T05:25:52+00:00,854700407,854700193,0,Volunteer Marek,Full-reserve banking,"/* Against */ Cochrane's idea is the least fully-reservy out of these guys, Krugman is mostly addressing Wolf"
2008-01-15T00:00:00+00:00,184369696,184368385,0,71.248.177.202,Full-reserve banking,
2019-05-23T13:04:35+00:00,898420512,889174123,0,94.65.216.254,Full-reserve banking,no article
2020-09-11T01:08:15+00:00,977794064,973766279,0,Citation bot,Full-reserve banking,"Alter: chapterurl. Add: url, s2cid, author pars. 1-1. Removed parameters. Some additions/deletions were actually parameter name changes. | You can [[WP:UCB|use this bot]] yourself. [[WP:DBUG|Report bugs here]]. | Suggested by SemperIocundus | via #UCB_webform"
2012-04-26T14:19:02+00:00,489314204,489313308,0,122.36.123.16,Full-reserve banking,/* Digital gold or silver */
2021-06-13T05:37:36+00:00,1028306603,1027832020,0,Sweetstache,Full-reserve banking,
2010-10-19T21:13:02+00:00,391716061,391715960,0,Elockid,Full-reserve banking,{{pp-semi|small=yes}}
2021-09-14T02:23:46+00:00,1044196933,1042630934,0,Citation bot,Full-reserve banking,Add: year. | [[WP:UCB|Use this bot]]. [[WP:DBUG|Report bugs]]. | Suggested by Whoop whoop pull up | [[Category:Banking terms]] | #UCB_Category 61/141
2017-04-05T02:45:13+00:00,773900730,773799571,0,Lawrencekhoo,Full-reserve banking,Reverted 1 edit by [[Special:Contributions/62.253.25.110|62.253.25.110]] ([[User talk:62.253.25.110|talk]]): Onus is on adder of material to justify it with relevant sourcing. ([[WP:TW|TW]])
2013-11-03T20:24:20+00:00,580051689,580007393,0,Reissgo,Full-reserve banking,
2015-03-09T05:08:51+00:00,650563683,650114797,0,SPECIFICO,Full-reserve banking,Removing unsourced content
2010-04-29T03:59:32+00:00,358988561,358890277,0,$atan's$pawn,Full-reserve banking,Didn't work
2016-08-28T10:15:44+00:00,736562452,736562059,0,Graham87,Full-reserve banking,"Undid revision 730253045 by [[Special:Contributions/Akoako88|Akoako88]] ([[User talk:Akoako88|talk]]), more of the same thing"
2011-05-12T09:10:04+00:00,428723727,428723682,0,Lawrencekhoo,Full-reserve banking,rm space
2019-08-21T22:36:05+00:00,911903649,898420512,0,Гармонический Мир,Full-reserve banking,/* In favor */
2010-07-05T02:41:41+00:00,371782867,371383029,0,Citation bot 1,Full-reserve banking,Citations: [Pu169]Tweaked: url.  You can [[WP:UCB|use this bot]] yourself! [[WP:DBUG|Report bugs here]].
2013-01-18T18:07:36+00:00,533724595,533506503,0,Anomalocaris,Full-reserve banking,avoid all caps; decades no apostrophe; comment on 1600s as decade or century
2014-08-21T14:38:13+00:00,622203684,622174828,0,Ravensfire,Full-reserve banking,Undid revision 622174828 by [[Special:Contributions/Reissgo|Reissgo]] ([[User talk:Reissgo|talk]])See also should only have links to articles that aren't mentioned in the text
2006-11-13T04:42:39+00:00,87478335,81761337,0,Rockpocket,Full-reserve banking,/* See also */  remove link to deleted article
2019-10-18T23:29:15+00:00,921953744,921071047,0,Гармонический Мир,Full-reserve banking,/* See also */
2013-09-12T22:22:35+00:00,572680754,572680683,0,SPECIFICO,Full-reserve banking,ce
2015-01-09T19:31:08+00:00,641769293,639231119,0,89.72.240.162,Full-reserve banking,/* Views on full-reserve banking */  fixed a run-on 'however.'
2012-01-12T15:24:03+00:00,470978632,470935507,0,Ravensfire,Full-reserve banking,Undid revision 470935507 by [[Special:Contributions/75.83.155.100|75.83.155.100]] ([[User talk:75.83.155.100|talk]])rv unsourced commentary
2015-12-09T13:02:40+00:00,694467590,694467250,0,Wiki-vr.mp,Full-reserve banking,/* Views on full-reserve banking */
2007-07-27T19:37:25+00:00,147514252,144271129,0,Childhoodsend,Full-reserve banking,/* Criticism of 100% reserves banking */  wikify Pascal Salin
2011-05-27T09:54:32+00:00,431154070,431153466,0,SmackBot,Full-reserve banking,Dated {{Citation needed}} x 7. (Build p612)
2015-10-16T13:35:15+00:00,686020468,686020402,0,SPECIFICO,Full-reserve banking,"Undid revision 686018515 by ([[User talk:PowerQU8st|talk]]) Remove OR. Moreover ""full reserve banking"" is undefined in the current system that ultimately converts to fiat."
2013-03-13T20:04:11+00:00,543912641,543482821,0,Canadianpolisci,Full-reserve banking,Added four related articles
2012-09-06T15:42:25+00:00,511084467,511054012,0,Reissgo,Full-reserve banking,removed sentence which was contracdicted by following sentence
2015-04-05T22:46:32+00:00,655104124,650563683,0,Moonraker,Full-reserve banking,/* Views on full-reserve banking */m
2006-12-19T11:09:27+00:00,95288112,91219123,0,195.137.93.230,Full-reserve banking,/* Islamic banking */
2009-04-26T03:09:36+00:00,286160804,286155730,0,Lawrencekhoo,Full-reserve banking,[[WP:RBK|Reverted]] edits by [[Special:Contributions/GoldToTheMoonAlice|GoldToTheMoonAlice]] ([[User talk:GoldToTheMoonAlice|talk]]) to last version by Lawrencekhoo
2021-09-06T00:15:23+00:00,1042630934,1028306603,0,Jarrod Baniqued,Full-reserve banking,
2018-10-26T13:07:30+00:00,865830657,865830601,0,Jonpatterns,Full-reserve banking,/* See also */ s
2008-04-22T04:35:04+00:00,207288928,206758133,0,Andrzej Kmicic,Full-reserve banking,/* Reserve ratio */ format of a link corrected
2017-11-12T09:53:47+00:00,809921556,806824094,0,24.198.209.172,Full-reserve banking,
2019-09-21T01:15:30+00:00,916860284,914665550,0,Monkbot,Full-reserve banking,/* In favor */[[User:Monkbot/task 16: remove replace deprecated dead-url params|Task 16]]: replaced (1×) / removed (0×) deprecated |dead-url= and |deadurl= with |url-status=;
2009-01-23T23:19:08+00:00,266010933,265953179,0,SmackBot,Full-reserve banking,Date maintenance tags and general  fixes
2009-10-16T02:18:28+00:00,320138551,320137562,0,Bryantrn619,Full-reserve banking,/* Free Lakota Bank */
2018-03-07T20:10:59+00:00,829299710,829299639,0,Гармонический Мир,Full-reserve banking,/* See also */
2016-02-03T04:05:58+00:00,703044133,702114946,0,SPECIFICO,Full-reserve banking,rv unencyclopedic announcement per [[WP:NOTNEWS]]
2009-07-15T02:54:17+00:00,302158453,302157543,0,Lawrencekhoo,Full-reserve banking,/* Free Lakota Bank */
2009-02-27T21:59:58+00:00,273742797,272957367,0,67.91.71.50,Full-reserve banking,"/* The case for full reserve */ deliterious - the quality of suffering from ""ham-fisted"" central bank policies"
2021-03-30T03:55:31+00:00,1014996890,1010960697,0,5225C,Full-reserve banking,Lead
2009-04-05T14:37:49+00:00,281900265,281599655,0,Lawrencekhoo,Full-reserve banking,Reverted 1 edit by [[Special:Contributions/122.105.47.152|122.105.47.152]]; Rv sock. ([[WP:TW|TW]])
2008-06-26T11:05:11+00:00,221850277,221850041,0,Isis07,Full-reserve banking,
2011-01-27T21:30:08+00:00,410442668,410439469,0,Reissgo,Full-reserve banking,"no need for ""would"" because existing definition already covers this - see discussion page."
2009-06-03T19:00:39+00:00,294224634,292384021,0,Nirvana2013,Full-reserve banking,/* Current Examples */ Tidy
2008-07-09T23:13:55+00:00,224682317,224549478,0,192.200.5.41,Full-reserve banking,/* Reserve ratio */
2008-04-01T01:10:24+00:00,202439353,202439113,0,01001,Full-reserve banking,
2010-03-01T02:53:52+00:00,347012363,346366672,0,FrescoBot,Full-reserve banking,Bot: links syntax
2014-12-22T20:17:13+00:00,639231119,637890265,0,70.182.71.160,Full-reserve banking,
2015-06-14T11:53:18+00:00,666892982,666683631,0,ABCTT,Full-reserve banking,
2007-05-17T13:30:37+00:00,131533274,129516151,0,74.14.18.21,Full-reserve banking,/* Reserve ratio */
2016-06-12T07:24:51+00:00,724899605,724876287,0,Reissgo,Full-reserve banking,/* Views on full-reserve banking */
2022-02-02T17:35:28+00:00,1069510192,1069509693,0,Mx. Granger,Full-reserve banking,/* Fractional-reserve banking fraud issues */ page needed
2008-10-08T06:57:58+00:00,243835741,243729759,0,81.105.242.11,Full-reserve banking,/* The case for full-reserve banking */
2017-06-29T12:37:18+00:00,788096316,788050843,0,220.240.19.85,Full-reserve banking,
2006-08-04T06:57:18+00:00,67592828,64923143,0,Renamed user efB5zCgPvkrQ7C,Full-reserve banking,"[[WP:RETF|mboverload's RegExTypoFix]], Replaced: prominant → prominent,  using [[WP:AWB|AWB]]"
2007-03-27T03:29:37+00:00,118177226,95288112,0,139.55.32.219,Full-reserve banking,/* External links */
2013-04-20T11:31:18+00:00,551269995,551251109,0,Reissgo,Full-reserve banking,
2010-11-15T03:29:29+00:00,396837297,395896579,0,Iagops,Full-reserve banking,
2014-07-09T17:41:23+00:00,616253505,616253078,0,Reissgo,Full-reserve banking,Put most important pro full-rb paper on top.
2007-07-12T21:49:13+00:00,144271129,143044357,0,Nickshanks,Full-reserve banking,/* Reserve ratio */
2014-03-23T02:58:56+00:00,600821583,598365858,0,Monkbot,Full-reserve banking,/* Views on full-reserve banking */Task 1b: Fix [[Help:CS1_errors#deprecated_params|CS1 deprecated date parameter errors]]
2009-10-13T13:54:36+00:00,319622651,316289275,0,68.95.196.214,Full-reserve banking,
2011-09-11T04:26:02+00:00,449671784,449097374,0,Headbomb,Full-reserve banking,"Various citation & identifier cleanup, plus AWB genfixes. using [[Project:AWB|AWB]]"
2011-10-25T09:05:56+00:00,457287889,457287338,0,Lawrencekhoo,Full-reserve banking,/* Debate over full-reserve banking */
2011-01-02T08:48:52+00:00,405466233,405392780,0,BigK HeX,Full-reserve banking,Undid revision 405182563 by [[Special:Contributions/Reissgo|Reissgo]] ([[User talk:Reissgo|talk]]) restoring cited material
2013-04-03T13:41:34+00:00,548484702,547344839,0,100.1.95.219,Full-reserve banking,/* The case for full reserve */
2022-07-08T08:47:59+00:00,1097046125,1069510192,0,RMGunton,Full-reserve banking,"/* Further reform */ Added link from ""CDS"" to ""Credit Default Swap"" article."
2006-11-30T20:19:40+00:00,91219123,87478335,0,SmackBot,Full-reserve banking,Date the unreferenced tag (approx)  using [[WP:AWB|AWB]]
2006-05-12T16:54:51+00:00,52859079,52286308,0,85.18.81.162,Full-reserve banking,added serial comma in the first sentence
2016-01-04T11:41:26+00:00,698167043,698166964,0,SPECIFICO,Full-reserve banking,/* top */ Spelling/grammar correction
2020-03-25T02:24:36+00:00,947231607,945974206,0,2601:184:497F:6890:4CFB:1BFE:60AB:1931,Full-reserve banking,/* The Existing System */ typo correction baking -> banking
2020-04-29T21:17:06+00:00,953942758,953861981,0,CambyGramby,Full-reserve banking,/* The Existing System */
2012-06-22T20:46:52+00:00,498888671,492134866,0,76.24.132.30,Full-reserve banking,
2020-10-22T21:50:26+00:00,984920037,977794064,0,Citation bot,Full-reserve banking,Alter: chapterurl. URLs might have been internationalized/anonymized. Add: s2cid. | You can [[WP:UCB|use this bot]] yourself. [[WP:DBUG|Report bugs here]]. | Suggested by AManWithNoPlan | All pages linked from cached copy of User:AManWithNoPlan/sandbox3 | via #UCB_webform_linked 626/1471
2021-03-08T07:31:26+00:00,1010960697,1010960565,0,Sweetstache,Full-reserve banking,/* United States */ edited section title
2008-09-29T15:00:15+00:00,241780669,241778233,0,Mauls,Full-reserve banking,/* Criticism of full-reserve banking advocates */
2008-10-31T16:35:53+00:00,248842072,248801847,0,77.44.41.32,Full-reserve banking,/* Monetary reform */
2007-06-25T15:25:59+00:00,140537035,140533778,0,Arronax50,Full-reserve banking,/* External links */
2018-07-18T16:07:30+00:00,850883350,850814341,0,Гармонический Мир,Full-reserve banking,/* See also */
2010-08-15T14:42:21+00:00,379051325,378789104,0,RjwilmsiBot,Full-reserve banking,"/* Debate over full reserve */CiteCompletion, dates: 1, works/pubs: 1, using [[Project:AWB|AWB]] (7005)"
2020-05-14T11:50:26+00:00,956629264,956628686,0,Mauls,Full-reserve banking,/* Further Reform */
2006-10-16T10:25:15+00:00,81761337,81761272,0,Bobet,Full-reserve banking,/* Islamic banking */ cleanup the ref
2011-07-11T07:10:15+00:00,438869442,438523489,0,Lawrencekhoo,Full-reserve banking,"Reverted [[WP:AGF|good faith]] edits by [[Special:Contributions/Themoneymultiplier|Themoneymultiplier]] ([[User talk:Themoneymultiplier|talk]]): Self published, not a [[WP:RS|reliable source]]. ([[WP:TW|TW]])"
2008-02-22T03:25:17+00:00,193194699,193180983,0,Childhoodsend,Full-reserve banking,/* External links */ + de soto
2012-12-18T13:12:38+00:00,528632278,528629430,0,SPECIFICO,Full-reserve banking,"Undid revision 528629430 by [[Special:Contributions/Reissgo|Reissgo]] ([[User talk:Reissgo|talk]]) If you believe that is correct, please find a RS to support this statement."
2018-05-14T16:50:21+00:00,841214435,837391108,0,DeprecatedFixerBot,Full-reserve banking,"Removed deprecated parameter(s) from [[Template:Div col]] using [[User:DeprecatedFixerBot| DeprecatedFixerBot]]. Questions? See [[Template:Div col#Usage of ""cols"" parameter]] or [[User talk:TheSandDoctor|msg TSD!]] (please mention that this is task #2!))"
2016-03-11T03:11:31+00:00,709468644,709468410,0,Lawrencekhoo,Full-reserve banking,/* Views on full-reserve banking */
2017-10-12T08:35:45+00:00,804978067,804977941,0,210.11.176.214,Full-reserve banking,/* Views */
2015-09-18T11:36:40+00:00,681624947,681620574,0,Fiachra10003,Full-reserve banking,"NY Times cite, eng.forsaetisraduneyti.is"
2006-07-20T21:24:08+00:00,64923143,64923028,0,200.85.47.22,Full-reserve banking,/* Digital gold */
2010-01-05T00:43:26+00:00,335911202,334088582,0,Qwyrxian,Full-reserve banking,"/* Criticism */  The ""might argue"" words are weasel words; I'm taking them out without access to original source material; if anyone with access can better clarify, please do so."
2012-05-12T02:57:27+00:00,492134866,490230421,0,Helpful Pixie Bot,Full-reserve banking,ISBNs (Build KH)
2015-03-06T07:36:26+00:00,650114797,649977920,0,BG19bot,Full-reserve banking,/* Views on full-reserve banking */[[WP:CHECKWIKI]] error fix for #61.  Punctuation goes before References. Do [[Wikipedia:GENFIXES|general fixes]] if a problem exists. - using [[Project:AWB|AWB]] (10839)
2016-10-20T10:44:36+00:00,745302780,736562452,0,564dude,Full-reserve banking,"Edited author list in reference to correct ""Cite uses deprecated parameters"" error"
2007-01-01T12:01:27+00:00,97710358,96125100,0,Rich Farmbrough,Gateway,"Style:- , Replaced: ''' is the name of a → ''' is a (2)  using [[Project:AWB|AWB]]"
2020-09-20T14:18:01+00:00,979397370,979397240,0,89.241.196.77,GetUp!,Undid revision 979053744 by [[Special:Contributions/193.116.127.36|193.116.127.36]] ([[User talk:193.116.127.36|talk]]) Undue and broken formatting
2017-06-08T07:25:53+00:00,784424136,762559012,0,Jimmyjonney,GetUp!,Added left wing description per Age article
2010-05-27T00:48:53+00:00,364399531,364383243,0,Lawrencekhoo,Gold standard,/* U.S. Prolongation of the Great Depression */
2010-12-07T18:26:07+00:00,401094070,401093201,0,Magog the Ogre,Gold standard,"Undid revision 401089309 by [[Special:Contributions/71.174.130.146|71.174.130.146]] ([[User talk:71.174.130.146|talk]]) - regardless of your point, you are not entitled to edit this article while blocked elsewhere."
2011-03-07T11:14:24+00:00,417586564,416984890,0,169.232.241.39,Gold standard,/* Prolongation of the Great Depression */
2022-10-09T16:39:17+00:00,1115058780,1114759763,0,Rlink2,Gold standard,Adding archives [[WP:LINKROT]]
2017-04-23T19:19:09+00:00,776861779,760710997,0,50.26.181.204,Gateway,/* Other uses */
2020-04-15T15:49:13+00:00,951118374,948491625,0,83.5.164.193,Greater fool theory,
2011-08-11T13:08:18+00:00,444259160,405588053,0,Lightbot,Golden Gumboot,mostly units
2015-09-19T06:50:42+00:00,681743905,650163845,0,Ajd,Greater fool theory,"ref 4 refers to definition, not this clarification; clarified clarification"
2022-02-18T10:34:21+00:00,1072569752,1071179433,0,BillC,Greater fool theory,/* Examples */ fmt
2019-01-18T21:29:28+00:00,879079041,874252799,0,108.34.215.175,Greater fool theory,/* See also */
2020-09-24T16:17:29+00:00,980099684,970919736,0,LearnMore,Greater fool theory,General proofreading.
2013-05-16T20:37:00+00:00,555417654,553552512,0,Strani Beeap,Greater fool theory,/* In Popular Culture */ horseshit trivia that bears no actual relationship to what's being described.
2006-12-06T21:33:56+00:00,92545239,92096435,0,SmackBot,Guru Arjan,Date the maintenance tags  using [[Project:AWB|AWB]]
2021-04-14T10:28:32+00:00,1017740171,1017558943,0,NSH001,Gympie Pyramid,"fix 3 harv/sfn no-target errrors, fix dab + usual fixes"
2016-05-21T04:55:38+00:00,721339254,710459074,0,Andy M. Wang,Habib,Deprecate a=/t= [[Special:Diff/721332908#Template:Lang-ar-at|per TfD sugg.]] Discuss at TfD if concerns using [[Project:AWB|AWB]]
2016-09-20T05:50:29+00:00,740297829,740240856,0,Doug Weller,Gympie Pyramid,"/* top */ clarify after deletion of ""amateur"""
2022-05-02T23:05:44+00:00,1085878523,1085858784,0,SuperMarioMan,Habib,Reverted 1 edit by [[Special:Contributions/Temmyani|Temmyani]] ([[User talk:Temmyani|talk]]): Rmv advert
2017-08-24T20:23:00+00:00,797074759,796354501,0,Grifter84,Habib,Undid revision 795701492 by [[Special:Contributions/43.240.4.12|43.240.4.12]] ([[User talk:43.240.4.12|talk]])
2009-01-01T06:32:40+00:00,261228139,258762134,0,Rich Farmbrough,Habib,"Canonical template name, Replaced: Infobox Given Name Revised → Infobox given name  using [[Project:AutoWikiBrowser|AWB]]"
2008-01-20T02:18:20+00:00,185559264,185559231,0,FastLizard4,Habib,Revert previous revision by [[Special:Contributions/68.61.126.222|68.61.126.222]]
2019-11-05T14:46:35+00:00,924718537,924718467,0,Ferret,Habib,Reverted 1 edit by [[Special:Contributions/Lucahasshorthair|Lucahasshorthair]] ([[User talk:Lucahasshorthair|talk]]) to last revision by Editor2020 ([[WP:TW|TW]])
2006-06-06T21:04:03+00:00,57242982,57241797,0,Hairy Dude,Hard currency,"$5 USD -> US$5; glossed ""USD"" and linked ""US dollar"" further up"
2014-07-27T05:26:13+00:00,618633899,616154574,0,190.219.1.209,Hard currency,/* Mixed currencies */
2011-06-15T12:53:28+00:00,434403403,434082952,0,Mild Bill Hiccup,High-fructose corn syrup,/* Public relations */ spelling
2021-09-25T14:13:35+00:00,1046407038,1044185158,0,70.24.23.230,High-fructose corn syrup,"/* Taste difference */ removed dubious study, will explain on talk"
2016-08-21T14:20:35+00:00,735550066,735549280,0,ChemNerd,High-fructose corn syrup,/* Beekeeping */
2014-08-07T19:36:46+00:00,620275436,620139936,0,37.203.103.220,High-fructose corn syrup,/* European Union */
2016-02-02T07:37:36+00:00,702896145,702654761,0,BG19bot,High-fructose corn syrup,/* History */[[WP:CHECKWIKI]] error fix for #64.  Do [[Wikipedia:GENFIXES|general fixes]] if a problem exists. - using [[Project:AWB|AWB]] (11876)
2016-07-12T14:26:18+00:00,729484726,722312690,0,24.213.11.86,High-fructose corn syrup,
2012-09-07T14:31:32+00:00,511228681,511228160,0,167.136.242.40,High-fructose corn syrup,/* Production */
2010-12-04T00:16:22+00:00,400403229,400402992,0,Cst17,History of Bangladesh,Reverted edits by [[Special:Contributions/2.96.176.221|2.96.176.221]] ([[User talk:2.96.176.221|talk]]) to last revision by 117.18.231.8 ([[WP:HG|HG]])
2013-04-09T01:25:32+00:00,549432451,546738310,0,BG19bot,History of Bangladesh,/* Formal Declaration of Independence */[[WP:CHECKWIKI]] error fix for #61.  Punctuation goes before References. Do [[Wikipedia:GENFIXES|general fixes]] if a problem exists. - using [[Project:AWB|AWB]] (9075)
2020-03-10T23:57:48+00:00,944964631,944964134,0,Thepenguin9,High-fructose corn syrup,Reverted edits by [[Special:Contributions/I_AM_THE_ONE_TRUE_PHOENIX|I_AM_THE_ONE_TRUE_PHOENIX]] ([[User talk:I_AM_THE_ONE_TRUE_PHOENIX|talk]]) ([[WP:HG|HG]]) (3.4.9)
2013-07-29T14:40:07+00:00,566290215,566245124,0,Wylve,Hong Kong China Ferry Terminal,"Reverted 1 edit by [[Special:Contributions/Paylung|Paylung]] ([[User talk:Paylung|talk]]): Mainland China would be a more accurate description of the routes, as Hong Kong is politically in China. ([[WP:TW|TW]])"
2016-08-19T10:34:22+00:00,735225456,724202834,0,Wpcpey,Hong Kong China Ferry Terminal,
2011-10-07T17:11:27+00:00,454416990,454317964,0,Arthena,Hot Air,Reverted edit(s) by [[Special:Contributions/46.195.100.127|46.195.100.127]] identified as test/vandalism using [[WP:STiki|STiki]]
2016-05-23T14:42:38+00:00,721698315,721688982,0,Ahunt,Hughes H-4 Hercules,Reverted edits by [[Special:Contribs/24.231.253.226|24.231.253.226]] ([[User talk:24.231.253.226|talk]]) to last version by John
2012-11-19T11:49:42+00:00,523832775,523704149,0,70.88.231.185,Hot Air,
2021-04-21T01:43:38+00:00,1019008952,1017304528,0,Tom.Reding,Hughes H-4 Hercules,Remove rendered gap(s) in {{Nav}}-block by moving non-{{Nav}}s outside; general cleanup & [[WP:GenFixes]] on
2010-06-01T10:10:49+00:00,365400931,364964328,0,R'n'B,Hyman Minsky,Fix [[WP:DPL|links]] to [[WP:D|disambiguation]] page [[Mortgage]]
2012-01-06T19:38:53+00:00,469954774,463933594,0,216.170.122.173,Hyman Minsky,
2013-05-21T09:33:07+00:00,556078525,544384579,0,The Gnome,Hyman Minsky,/* Views on John Maynard Keynes */ clearer language
2009-01-22T12:35:33+00:00,265689093,261986124,0,Pat Piper,Hyman Minsky,/* See also */
2021-12-07T18:02:35+00:00,1059139216,1056587478,0,Orenburg1,Hyman Minsky,sp
2022-07-13T17:03:26+00:00,1097984311,1097159683,0,2409:4072:2E15:462A:54D2:5F7C:4706:9CED,ISRO,/* Directorate of Space Situational Awareness and Management */ IS4OM inauguration.
2018-04-10T10:59:28+00:00,835719624,835363446,0,2405:205:1508:E8FA:ADA5:7F1D:CB21:6F70,ISRO,/* Augmented Satellite Launch Vehicle (ASLV) */
2019-10-24T11:44:27+00:00,922799469,921590741,0,24.37.54.254,Icebreaker (non-fiction book),/* Content */
2020-11-23T18:30:05+00:00,990260745,965181782,0,2pou,If,/* Literature */ move cleanup
2009-12-22T22:50:30+00:00,333385507,328703800,0,SmackBot,Icebreaker (non-fiction book),Delink dates ([[WP:MOSUNLINKDATES]]) using [[Project:AWB]]
2011-08-06T21:59:55+00:00,443412759,443411933,0,Tassedethe,If,/* Abbreviations */
2022-05-30T03:51:12+00:00,1090557472,1084369529,0,2600:1700:4819:B000:F476:4061:7E27:9592,Imaad Wasif,bio update
2019-02-27T12:53:02+00:00,885344536,882515819,0,Ser Amantio di Nicolao,Imaad Wasif,add category
2014-08-22T05:04:09+00:00,622293625,613836892,0,Harshhussey,Inderjit Singh Bindra Stadium,/* External links */
2018-05-31T18:40:47+00:00,843826993,843746815,0,DogeChungus,Inderjit Singh Bindra Stadium,
2010-09-22T09:19:40+00:00,386273628,384177517,0,Rinconsoleao,Inflation,/* History */ Improving wording
2018-07-31T22:54:40+00:00,852870279,852742242,0,Гармонический Мир,Inflation,/* See also */
2017-08-22T08:52:58+00:00,796655468,796192431,0,KolbertBot,Inflation,Bot: [[Wikipedia:Bots/Requests for approval/KolbertBot|HTTP→HTTPS]]
2012-10-23T18:25:15+00:00,519432478,519429995,0,Hair,Inflation,Reverted edit(s) by [[Special:Contributions/98.195.108.80|98.195.108.80]] identified as test/vandalism using [[WP:STiki|STiki]]
2010-06-28T14:26:04+00:00,370604799,370604701,0,Satori Son,Inflation,pp-semi-sock
2010-01-19T23:17:56+00:00,338848763,338847760,0,Arthur Rubin,Inflation,[[WP:UNDO|Undid]] revision 338847760 by [[Special:Contributions/Inflationhawk|Inflationhawk]] ([[User talk:Inflationhawk|talk]]) website promoting a unique theory; remove
2010-12-24T19:58:51+00:00,404075407,403944685,0,82.55.180.193,Inflation,/* External links */
2014-05-24T20:36:02+00:00,609987761,609966035,0,Bobrayner,Inflation,more general wording; there are other taxes
2012-06-06T20:34:43+00:00,496330988,496237105,0,CodyTCBY,Inflation,
2008-11-09T09:46:43+00:00,250621680,250273975,0,DaveApter,Inflation,/* Gold standard */ bretton woods and gold standard
2017-09-20T07:32:20+00:00,801534734,801534727,0,ClueBot NG,Inflation,"Reverting possible vandalism by [[Special:Contribs/2405:204:2022:A8A1:C01:38A6:E3B2:C6B2|2405:204:2022:A8A1:C01:38A6:E3B2:C6B2]] to version by 2605:A000:F8C8:1800:78D2:56B0:F329:925. [[WP:CBFP|Report False Positive?]] Thanks, [[WP:CBNG|ClueBot NG]]. (3..."
2009-03-05T05:30:55+00:00,275107508,275104578,0,Gregalton,Inflation,[[WP:UNDO|Undid]] revision 275104578 by [[Special:Contributions/68.120.229.206|68.120.229.206]] ([[User talk:68.120.229.206|talk]])
2007-03-19T00:39:13+00:00,116141114,116141020,0,Mercury~enwiki,Inflation,Reverted [[WP:AGF|test]] and/or [[WP:VAND|vandalism]] edits by [[Special:Contributions/68.106.27.56|68.106.27.56]]
2013-10-08T05:33:19+00:00,576246429,576246319,0,Jianhui67,Inflation,[[Help:Reverting|Reverted]] edits by [[Special:Contributions/117.202.60.81|117.202.60.81]] ([[User talk:117.202.60.81|talk]]) to last version by LogX
2006-08-12T23:01:31+00:00,69290358,69249975,0,JBKramer,Inflation,em spam
2017-12-03T20:00:52+00:00,813470195,813468514,0,Loraof,Inflation,"/* Cost-of-living allowance */ ce, and correcting acronym"
2013-03-01T23:55:15+00:00,541611435,540021130,0,Cherkash,Inflation,fixed [[MOS:DASH|dashes]] using a [[User:GregU/dashes.js|script]]
2007-03-11T04:51:04+00:00,114232896,114232539,0,UBeR,Inflation,/* Rational Expectations */
2012-03-04T03:12:15+00:00,480084644,480084611,0,JimVC3,Inflation,Reverted 1 edit by [[Special:Contributions/197.226.122.199|197.226.122.199]] ([[User talk:197.226.122.199|talk]]) identified as [[WP:VAND|vandalism]] to last revision by Romanm. ([[WP:TW|TW]])
2022-10-19T09:37:51+00:00,1116981849,1116979974,0,Rodney Baggins,Inflation,"/* References */ fix [[:Category:CS1 errors: missing periodical|CS1 error]], book citations"
2013-07-09T08:20:07+00:00,563492369,562924256,0,111.69.236.247,Inflation,/* Negative */
2008-11-10T19:53:58+00:00,250938744,250938392,0,Rwalker,Inflation,
2022-08-03T04:10:01+00:00,1102049384,1101971019,0,Citation bot,Inflation,Add: date. | [[WP:UCB|Use this bot]]. [[WP:DBUG|Report bugs]]. | Suggested by Abductive | #UCB_toolbar
2019-01-08T15:01:31+00:00,877418283,877417879,0,Mean as custard,Inflation,Reverted edits by [[Special:Contribs/Dan43643|Dan43643]] ([[User talk:Dan43643|talk]]) to last version by Soibangla
2006-05-22T23:17:47+00:00,54611925,54423438,0,JDK77590,Inflation,no neutrality if one person plays god with the article
2019-07-09T05:45:09+00:00,905449412,904495808,0,GreenC bot,Inflation,Rescued 1 archive link. [[User:GreenC/WaybackMedic_2.5|Wayback Medic 2.5]]
2016-01-29T00:33:32+00:00,702187909,702187410,0,Kbrose,Inflation,copyedit
2017-07-01T07:13:15+00:00,788411521,786357788,0,Bender the Bot,Inflation,"/* Issues in measuring */HTTP&rarr;HTTPS for [[Reuters]], per [[Wikipedia:Bots/Requests for approval/Bender the Bot 8|BRFA 8]] using [[Project:AWB|AWB]]"
2018-05-15T10:44:57+00:00,841357817,841357601,0,Qualuids,Inflation,Cost-of-living allowance citation added
2012-10-01T13:58:55+00:00,515465873,515418061,0,Bobrayner,Inflation,let's try to keep this neutral
2008-06-19T00:30:12+00:00,220259473,220192007,0,SmackBot,Inflation,Date the maintenance tags or general  fixes
2010-05-22T17:23:26+00:00,363581400,363504867,0,71.124.104.81,Inflation,/* Monetarist view */
2022-07-21T21:22:49+00:00,1099640631,1099639953,0,RenatUK,Inflation,Reverted 1 edit by [[Special:Contributions/2601:40E:8101:EAA0:3D0B:D20B:E5E5:DEE0|2601:40E:8101:EAA0:3D0B:D20B:E5E5:DEE0]] ([[User talk:2601:40E:8101:EAA0:3D0B:D20B:E5E5:DEE0|talk]]) to last revision by JJLiu112
2020-07-23T03:09:46+00:00,969050603,969050399,0,Nicolas Perrault III,Inflation,/* History */
2016-06-25T12:17:50+00:00,726936123,725400798,0,J 1982,Inflation,/* History */
2016-09-25T20:01:52+00:00,741163773,738539701,0,203.110.242.24,Inflation,
2016-09-09T15:32:36+00:00,738539701,738539638,0,Serols,Inflation,Reverted edits by [[Special:Contributions/107.1.184.98|107.1.184.98]] ([[User talk:107.1.184.98|talk]]) ([[WP:HG|HG]]) (3.1.21)
2006-12-04T05:58:01+00:00,91944464,91944405,0,Ohnoitsjamie,Inflation,Reverted edits by [[Special:Contributions/203.199.219.18|203.199.219.18]] ([[User talk:203.199.219.18|talk]]) to last version by 128.86.152.60
2016-10-26T22:50:40+00:00,746358233,746358008,0,DanielRigal,Inflation,Reverted 1 edit by [[Special:Contributions/175.100.12.101|175.100.12.101]] ([[User talk:175.100.12.101|talk]]): No idea what this but I know it ain't right. ([[WP:TW|TW]])
2020-05-06T15:01:46+00:00,955209058,955208998,0,BSMIsEditing,Inflation,Reverted 1 edit by [[Special:Contributions/116.68.105.186|116.68.105.186]] ([[User talk:116.68.105.186|talk]]) to last revision by Graham87 ([[WP:TW|TW]])
2020-06-01T23:23:43+00:00,960252166,960247449,0,Robert McClenon,Inflation,/* Real bills doctrine */ Fixing style/layout errors
2006-08-15T02:29:32+00:00,69717732,69631496,0,Terjepetersen,Inflation,it swings both ways
2016-05-12T10:34:12+00:00,719881493,719880778,0,Materialscientist,Inflation,Reverted 1 edit by [[Special:Contributions/182.70.192.215|182.70.192.215]] identified as test/vandalism using [[WP:STiki|STiki]]
2014-07-12T13:20:42+00:00,616651366,616498016,0,Bobrayner,Inflation,nope
2013-08-14T04:23:51+00:00,568457313,568314699,0,MZMcBride,Inflation,rm [[:Category:Article Feedback 5]]: category-based system is deprecated (cf. [[Special:Permalink/568075317#Category merger proposed]])
2009-09-24T19:33:29+00:00,315977717,315868315,0,Arthur Rubin,Inflation,Reverted [[WP:AGF|good faith]] edits by [[Special:Contributions/80.82.2.35|80.82.2.35]]; I don't see that as a source..... ([[WP:TW|TW]])
2021-09-10T22:02:22+00:00,1043591352,1041159589,0,Thomasmeeks,Inflation,/* Monetary Policy */ →  Monetary policy (per [[MOS:AT]])
2009-07-20T05:36:35+00:00,303079637,303079477,0,Lawrencekhoo,Inflation,/* Effects */ rerrange
2010-04-12T04:03:21+00:00,355472005,355376507,0,JohnDoe0007,Inflation,The intro cites how the term has come to be used. It is important in the reader's understanding of the term to be informed of the 2 ways it is used. Neglecting that hurts the integrity of the article.
2022-06-17T13:11:43+00:00,1093569404,1093569366,0,Hey man im josh,Inflation,Reverted edits by [[Special:Contribs/240F:4F:29BD:1:906C:6A05:D84C:FED2|240F:4F:29BD:1:906C:6A05:D84C:FED2]] ([[User talk:240F:4F:29BD:1:906C:6A05:D84C:FED2|talk]]) to last version by Ingenuity
2016-06-15T12:36:28+00:00,725400798,725400482,0,Gladamas,Inflation,Reverted edits by [[Special:Contributions/121.54.58.241|121.54.58.241]] ([[User talk:121.54.58.241|talk]]): Editing tests ([[WP:HG|HG]]) (3.1.20)
2010-07-14T20:32:04+00:00,373504177,371975468,0,Citation bot 1,Inflation,"Citations: [Pu173] added: ref, postscript, jstor. Unified citation types.  You can [[WP:UCB|use this bot]] yourself! [[WP:DBUG|Report bugs here]]."
2021-02-20T08:50:20+00:00,1007862039,1007861995,0,211.245.116.5,Inflation,
2009-06-15T04:53:53+00:00,296486753,294805049,0,SieBot,Inflation,robot Adding: [[eu:Inflazio]]
2020-08-23T18:39:45+00:00,974563420,973381766,0,37.252.80.169,Inflation,
2008-10-30T23:56:02+00:00,248720444,248638555,0,VolkovBot,Inflation,robot  Adding: [[cy:Chwyddiant]]
2006-12-21T04:05:11+00:00,95662486,95386824,0,Chochopk,Inflation,Central Bank → central bank (it's not a proper noun)  using [[WP:AWB|AWB]]
2013-12-20T01:40:05+00:00,586879456,586415334,0,2601:C:8980:369:C417:DC2C:1AEC:4909,Inflation,
2007-10-03T14:46:37+00:00,162022107,162018217,0,62.254.236.250,Inflation,Reverting vandalism
2011-05-25T17:46:00+00:00,430879668,430817367,0,109.170.236.26,Inflation,/* Monetarist view */
2007-04-25T09:27:16+00:00,125780828,125630511,0,Geschichte,Inflation,rm descriptions of deleted item
2006-09-23T02:20:04+00:00,77289508,76991392,0,208.131.186.18,Inflation,
2008-10-26T01:26:18+00:00,247687588,247537540,0,CmdrObot,Inflation,"sp (2): Bank´s→Bank's, taxpayer´s→taxpayer's"
2010-09-29T01:24:40+00:00,387643176,387562836,0,DumbBOT,Inflation,removing a protection template from a non-protected page ([[User:DumbBOT/Protection|info]])
2019-11-18T20:19:54+00:00,926803723,926741445,0,Amillians,Inflation,World inflation map in 2019 added.
2018-03-31T04:21:11+00:00,833371284,832313368,0,InternetArchiveBot,Inflation,Rescuing 1 sources and tagging 0 as dead. #IABot (v1.6.5) ([[User:Feminist|Feminist]])
2006-08-05T19:59:49+00:00,67873667,67810422,0,Kitteneatkitten,Inflation,"Carbonate, you are now vadalizing this article with your revert. Your ""balance"" is to include fringe theories that do not appear in any textbook."
2009-03-22T12:54:45+00:00,278930860,278918534,0,Bobby131313,Inflation,/* External links */  Remove link to Google knockoff that does nothing really.
2012-11-08T18:29:53+00:00,522040511,521443729,0,206.131.130.89,Inflation,
2018-11-09T14:18:58+00:00,868023628,868023390,0,Philip Trueman,Inflation,Reverted edits by [[Special:Contribs/105.112.27.23|105.112.27.23]] ([[User talk:105.112.27.23|talk]]) to last version by Jebcubed
2019-02-10T10:02:58+00:00,882620470,882620299,0,Volunteer Marek,Inflation,/* Keynesian view */ um... no
2013-11-17T16:14:57+00:00,582065328,582065146,0,108.33.121.9,Inflation,/* Heterodox views */
2008-01-18T08:47:27+00:00,185169116,185028717,0,SmackBot,Inflation,Date/fix the maintenance tags or gen fixes  using [[Project:AutoWikiBrowser|AWB]]
2014-05-01T20:49:02+00:00,606680403,606680264,0,BethNaught,Inflation,Reverted 1 edit by [[Special:Contributions/14.139.226.12|14.139.226.12]] ([[User talk:14.139.226.12|talk]]): Broke the template. ([[WP:TW|TW]])
2018-08-12T00:37:05+00:00,854525450,854428931,0,Cretog8,Inflation,"revert: ""a"" fits"
2007-07-18T01:46:22+00:00,145348161,144996882,0,209.59.111.227,Inflation,/* Econometrics */
2011-03-06T16:45:40+00:00,417448077,417448055,0,ClueBot NG,Inflation,"Reverting possible vandalism by [[Special:Contributions/188.222.228.187|188.222.228.187]] to version by 220.215.160.141. False positive? [[User:ClueBot NG/FalsePositives|Report it]]. Thanks, [[User:ClueBot NG|ClueBot NG]]. (331242) (Bot)"
2016-11-14T21:21:36+00:00,749537518,748112532,0,GreenC bot,Inflation,2 archive templates merged to {{[[template:webarchive|webarchive]]}} ([[User:Green_Cardamom/Webarchive_template_merge|WAM]])
2018-04-20T21:38:32+00:00,837446569,837174325,0,Nemo bis,Inflation,Added free to read link in citations with [[WP:OABOT|OAbot]] #oabot
2019-07-27T11:52:58+00:00,908096277,908096208,0,2405:204:718A:2D17:F9AB:E1E9:DDE3:F0BC,Inflation,
2015-12-22T03:07:32+00:00,696281721,696002306,0,OlEnglish,Inflation,/* See also */ upd wl
2022-08-09T11:54:14+00:00,1103380962,1102606725,0,2607:FEA8:429C:F470:0:0:0:69C2,Inflation,Clarified this sentence to remove insinuation that the abandonment of local currency may have been a government policy.
2009-08-24T05:37:21+00:00,309730519,309673829,0,Lawrencekhoo,Inflation,/* Origins */ better title I think
2016-03-01T17:47:52+00:00,707766449,707755946,0,GliderMaven,Inflation,Revert to revision 706801535 dated 2016-02-25 10:37:07 by Comp.arch using [[:en:Wikipedia:Tools/Navigation_popups|popups]]
2015-08-28T01:46:30+00:00,678218415,677813148,0,Cyberbot II,Inflation,"Rescuing 2 sources, flagging 0 as dead, and archiving 4 sources. ([[en:WP:PEACHY|Peachy 2.0 (alpha 8)]])"
2008-04-17T21:12:11+00:00,206334735,206334099,0,Gilliam,Inflation,Reverted edits by [[Special:Contributions/76.226.128.182|76.226.128.182]] to last version by David Biddulph
2014-04-24T16:40:15+00:00,605626830,605344991,0,208.125.139.130,Inflation,/* External links */
2006-05-21T22:27:27+00:00,54423438,54392123,0,67.180.189.73,Inflation,/* Gold */
2012-12-02T12:00:53+00:00,526004226,526004220,0,ClueBot NG,Inflation,"Reverting possible vandalism by [[Special:Contributions/41.139.227.182|41.139.227.182]] to version by Grolltech. False positive? [[User:ClueBot NG/FalsePositives|Report it]]. Thanks, [[User:ClueBot NG|ClueBot NG]]. (1372381) (Bot)"
2014-08-16T21:38:50+00:00,621539650,621459924,0,71.128.35.13,Inflation,/* Thermodynamic growth model */ Clarify link to inflation
2007-12-27T10:35:15+00:00,180401494,180328507,0,Rinconsoleao,Inflation,What do you mean by overproductivity of employment? Please provide references on the talk page.
2006-07-30T13:35:54+00:00,66681902,66676111,0,Enchanter,Inflation,"/* Wealth redistribution effect of increased money supply */ Removing this section - appears to be more an essay than a part of an encyclopedia article, and I don't think it's needed"
2020-02-02T15:26:12+00:00,938819887,937319521,0,186.143.161.73,Inflation,
2011-09-07T19:02:33+00:00,448982142,448953949,0,192.223.163.5,Inflation,/* Monetarist view */ linked milton friedman
2006-09-28T14:04:26+00:00,78303241,78267423,0,JBKramer,Inflation,/* Headline text */
2008-01-04T07:26:22+00:00,182060476,182056770,0,Susurrus,Inflation,Fixing format.
2017-05-17T12:45:12+00:00,780830958,779886429,0,201.176.158.197,Inflation,"/* Issues in measuring */This section is obsolete, many changes in Argentine politics have ocurred. Had to rephrase it"
2011-11-14T08:05:50+00:00,460576126,460573194,0,Lawrencekhoo,Inflation,Reverted 1 edit by [[Special:Contributions/210.4.76.210|210.4.76.210]] ([[User talk:210.4.76.210|talk]]). ([[WP:TW|TW]])
2022-08-02T16:14:46+00:00,1101946887,1101179197,0,Th78blue,Inflation,"ce, em dashes"
2015-01-14T11:59:49+00:00,642443679,638990386,0,77.249.59.229,Inflation,/* Negative */
2009-02-25T13:07:16+00:00,273181324,273178035,0,Doulos Christos,Inflation,Reverted edits by [[Special:Contributions/202.84.125.34|202.84.125.34]] ([[User talk:202.84.125.34|talk]]) to last version by Marek69
2010-04-12T12:23:58+00:00,355526142,355509196,0,JohnDoe0007,Inflation,/* History */ added + citations
2009-05-19T14:54:15+00:00,290955395,290954122,0,Gregalton,Inflation,[[WP:UNDO|Undid]] revision 290954122 by [[Special:Contributions/75.7.252.194|75.7.252.194]] ([[User talk:75.7.252.194|talk]])
2021-10-22T19:11:24+00:00,1051316573,1050426851,0,Iridescent 2,Inflation,"Cleanup and [[WP:AWB/T|typo fixing]], [[WP:AWB/T|typo(s) fixed]]: etc) → etc.), bilty → bility"
2010-08-24T17:23:14+00:00,380747347,380747206,0,Crazycomputers,Inflation,restore previous pp template
2016-08-10T19:46:19+00:00,733892536,733562762,0,FRASER pcampbell,Inflation,/* External links */ updated link
2007-09-30T06:13:23+00:00,161263402,161006656,0,123.2.233.204,Inflation,
2021-01-17T05:52:33+00:00,1000884143,1000884121,0,Silencemen21,Inflation,Undid edits by [[Special:Contributions/2401:4900:4172:EE3D:53EC:FDB1:9B73:C61D|2401:4900:4172:EE3D:53EC:FDB1:9B73:C61D]] ([[User talk:2401:4900:4172:EE3D:53EC:FDB1:9B73:C61D|talk]]) to last revision by 2600:1010:B002:1ED0:847A:924F:F718:AE58
2012-01-17T20:34:35+00:00,471924198,470987558,0,ACEOREVIVED,Inflation,/* History */
2014-06-16T13:16:42+00:00,613140964,613128959,0,AnomieBOT,Inflation,"Fixing reference errors and rescuing orphaned refs (""federalreserve2004"" from rev 612159313)"
2019-11-04T20:31:02+00:00,924596746,924596644,0,163.6.7.228,Inflation,
2009-04-13T12:56:46+00:00,283551668,283484429,0,AdjustShift,Inflation,/* See also */ erase; there should be no red links in see also
2010-09-01T09:59:02+00:00,382251229,382250113,0,Lawrencekhoo,Inflation,fix link
2011-07-21T09:53:01+00:00,440627391,440626811,0,Bobrayner,Inflation,undid unhelpful edit
2018-07-14T06:25:26+00:00,850184309,847227895,0,46.233.112.51,Inflation,These cannot be regarded as positive effects 1) devaluation of debt is good for the borrower as the article states but are bad for the lender 2) low nominal interest rates punish savers.
2006-10-31T20:09:23+00:00,84896819,84895739,0,UBeR,Inflation,/* Measures of inflation =================== */ revert vandalism
2021-02-11T13:18:02+00:00,1006172350,1002934675,0,CX Zoom,Inflation,/* Definition */ repetitive words within the sentence
2017-07-14T03:02:31+00:00,790495124,788411521,0,Koavf,Inflation,
2018-02-25T10:10:01+00:00,827548016,826115942,0,Dosyunques,Inflation,misplaced comma
2022-02-23T08:02:36+00:00,1073547542,1073547302,0,208.98.202.34,Inflation,/* See also */
2008-05-22T07:31:09+00:00,214139189,214139134,0,121.245.166.42,Inflation,/* Issues in measuring inflation */
2009-01-13T20:52:14+00:00,263885391,263885072,0,68.213.141.189,Inflation,
2012-07-09T07:53:55+00:00,501362675,501303326,0,Vlegros,Inflation,Link for citation is dead; found alternate source.
2022-01-29T13:26:03+00:00,1068624757,1068624277,0,Kpddg,Inflation,Rollback edit(s) by [[Special:Contributions/39.40.7.129|39.40.7.129]] ([[User_talk:39.40.7.129|talk]]): [[WP:VANDAL|Vandalism]] [[w:en:WP:RW|(RW 16.1)]]
2021-08-28T23:12:25+00:00,1041159589,1039850261,0,Gamren,Inflation,/* Medieval Egypt */
2006-07-02T23:44:02+00:00,61762119,61754469,0,86.62.193.202,Inflation,/* Measuring inflation */
2011-06-01T09:13:12+00:00,431970080,431754399,0,79.84.97.245,Inflation,
2012-02-18T00:12:47+00:00,477454133,477454112,0,ClueBot NG,Inflation,"Reverting possible vandalism by [[Special:Contributions/99.9.85.50|99.9.85.50]] to version by 67.171.34.7. False positive? [[User:ClueBot NG/FalsePositives|Report it]]. Thanks, [[User:ClueBot NG|ClueBot NG]]. (894545) (Bot)"
2012-06-15T06:41:34+00:00,497672059,497671952,0,Lawrencekhoo,Inflation,/* Further reading */ trim
2011-04-30T10:54:12+00:00,426705932,426469791,0,KamikazeBot,Inflation,r2.7.1) (robot Modifying: [[ps:د پیسو پاړسوب]]
2007-03-01T05:17:40+00:00,111763740,111763672,0,Carlosguitar,Inflation,Reverted edits by [[Special:Contributions/192.28.65.210|192.28.65.210]] to version 111243438 by [[Special:Contributions/Ikiroid|Ikiroid]]
2021-09-24T07:47:32+00:00,1046163412,1046148263,0,Philip Trueman,Inflation,Reverted edits by [[Special:Contribs/2600:1700:3610:8010:BC96:C225:2143:1A83|2600:1700:3610:8010:BC96:C225:2143:1A83]] ([[User talk:2600:1700:3610:8010:BC96:C225:2143:1A83|talk]]) to last version by Lawrencekhoo
2019-05-13T16:22:04+00:00,896910699,896824787,0,RingwraithReborn,Inflation,Added missing punctuation.
2022-02-02T14:46:45+00:00,1069480414,1069365503,0,Kahtar,Inflation,"clean up, replaced: website=https://www. → website=www. (3), |website=https:// → |website="
2021-01-04T18:33:51+00:00,998292992,995828265,0,136.25.161.245,Inflation,/* Measures */
2008-02-26T03:34:04+00:00,194093305,194078116,0,142.151.130.0,Inflation,rvv
2012-08-24T07:34:39+00:00,508897058,508883327,0,Lawrencekhoo,Inflation,/* Monetarist view */
2009-04-16T04:38:20+00:00,284145792,284141673,0,Lawrencekhoo,Inflation,/* Negative */ no context
2007-03-23T03:39:56+00:00,117207825,117027758,0,76.21.51.162,Inflation,m
2021-12-26T08:07:20+00:00,1062100671,1061762668,0,181.64.13.163,Inflation,
2006-11-07T18:25:53+00:00,86317038,86316941,0,Thatcher,Inflation,"{{protected}} looks like an edit war, need time to sort it out"
2022-06-10T14:26:47+00:00,1092473605,1092473552,0,A-NEUN,Inflation,[[WP:ROLLBACK|Reverted]] edits by [[Special:Contributions/2001:FB1:156:DEE0:71F3:C09:C931:D6DB|2001:FB1:156:DEE0:71F3:C09:C931:D6DB]] ([[User talk:2001:FB1:156:DEE0:71F3:C09:C931:D6DB|talk]]) to last revision by TharaHere: nonconstructive edits
2014-12-21T02:11:55+00:00,638990386,638990381,0,ClueBot NG,Inflation,"Reverting possible vandalism by [[Special:Contributions/50.121.253.210|50.121.253.210]] to version by BG19bot. False positive? [[User:ClueBot NG/FalsePositives|Report it]]. Thanks, [[User:ClueBot NG|ClueBot NG]]. (2070501) (Bot)"
2007-08-19T07:23:55+00:00,152203282,152203226,0,Hdt83,Inflation,Reverted 1 edit by [[Special:Contributions/220.225.6.106|220.225.6.106]]  to last revision by  [[User:71.1.41.8|71.1.41.8]]; Test.
2022-04-26T03:45:57+00:00,1084711006,1084710605,0,Lawrencekhoo,Inflation,/* Definition */
2017-12-17T21:20:06+00:00,815888019,813470195,0,2605:E000:1705:235:F43B:B654:F850:1BE4,Inflation,/* Real bills doctrine */
2017-09-18T03:41:17+00:00,801177188,801176631,0,2605:A000:F8C8:1800:78D2:56B0:F329:925,Inflation,
2009-07-27T15:37:50+00:00,304493477,304491650,0,Lawrencekhoo,Inflation,"Reverted 1 edit by [[Special:Contributions/173.70.132.133|173.70.132.133]]; Uncited, appears to be [[WP:OR]]. ([[WP:TW|TW]])"
2014-01-23T04:44:04+00:00,591977623,591975746,0,AnomieBOT,Inflation,Dating maintenance tags: {{Citation needed}}
2021-05-04T07:25:43+00:00,1021350485,1021350448,0,Gaelan,Inflation,Reverted edits by [[Special:Contributions/195.67.85.68|195.67.85.68]] ([[User talk:195.67.85.68|talk]]) ([[WP:HG|HG]]) (3.4.10)
2015-07-29T19:50:28+00:00,673681172,673623400,0,Iridescent,Inflation,"/* Measures */[[WP:AWB/T|Typo fixing]], [[WP:AWB/T|typo(s) fixed]]: Therefore → Therefore, using [[Project:AWB|AWB]]"
2020-11-30T21:03:45+00:00,991588290,991588258,0,Prince4747,Inflation,/* External links */
2015-05-12T19:52:35+00:00,662051153,662013447,0,J JMesserly,Inflation,"moved contribution by Hirenpatel2236 to External links.  Fixed Kiley cite, damaged  url parameter."
2015-11-19T01:30:58+00:00,691316343,691316259,0,Bgwhite,Inflation,[[WP:CHECKWIKI]] error fix. Broken bracket problem. Do [[Wikipedia:GENFIXES|general fixes]] and cleanup if needed. - using [[Project:AWB|AWB]] (11751)
2016-04-11T02:39:30+00:00,714657788,714657579,0,AManWithNoPlan,Inflation,[[WP:UCB|Assisted by Citation bot]]
2013-10-02T06:19:38+00:00,575399776,575290155,0,14.98.77.107,Inflation,
2019-05-23T13:05:19+00:00,898420597,897951833,0,94.65.216.254,Inflation,no article
2007-06-29T23:50:53+00:00,141501764,141501436,0,Nicolaas Smith,Inflation,/* Historical Cost Accounting Inflation */ as indicated by the change in the Consumer Price Index in low inflationary economies.
2019-12-23T17:28:39+00:00,932130667,932101861,0,DanielRigal,Inflation,Reverted 1 edit by [[Special:Contributions/94.143.196.54|94.143.196.54]] ([[User talk:94.143.196.54|talk]]) to last revision by InternetArchiveBot ([[WP:TW|TW]])
2008-12-28T23:28:37+00:00,260573445,260543186,0,Cretog8,Inflation,increasing and decresasing...?
2012-08-26T05:30:49+00:00,509199536,509199522,0,Kyle1278,Inflation,Reverted edits by [[Special:Contributions/222.153.163.54|222.153.163.54]] ([[User talk:222.153.163.54|talk]]) identified as unconstructive ([[WP:HG|HG]])
2013-04-12T05:34:32+00:00,549960130,549826794,0,Lawrencekhoo,Inflation,Reverted 1 edit by [[Special:Contributions/163.202.48.126|163.202.48.126]] ([[User talk:163.202.48.126|talk]]). ([[WP:TW|TW]])
2017-06-18T23:34:43+00:00,786357788,786155429,0,Natsirtguy,Inflation,/* Related definitions */ Fixed grammar
2022-10-12T20:43:43+00:00,1115713822,1115713572,0,Bilby,Inflation,Reverted edits by [[Special:Contribs/Bilby|Bilby]] ([[User talk:Bilby|talk]]) to last version by Sungodtemple
2017-03-01T04:57:38+00:00,767999446,767984738,0,Lawrencekhoo,Inflation,Reverted to revision 765260510 by [[Special:Contributions/ClueBot NG|ClueBot NG]] ([[User talk:ClueBot NG|talk]]): Rv v. ([[WP:TW|TW]])
2021-03-24T00:46:47+00:00,1013889949,1013884977,0,ThatIPEditor,Inflation,Reverting edit(s) by [[Special:Contributions/160.120.138.40|160.120.138.40]] ([[User_talk:160.120.138.40|talk]]) to rev. 1013142220 by Hitchmix18: [[WP:VANDAL|Vandalism]] [[w:en:WP:RW|(RW 16.1)]]
2012-02-02T21:22:41+00:00,474646082,474255398,0,Gtk123,Inflation,Removed sentence at end of paragraph that was not related to the topic being discussed
2014-10-23T11:58:26+00:00,630781385,630780575,0,AnomieBOT,Inflation,"Rescuing orphaned refs (""Bernholz"" from rev 630769568; ""hossfeld"" from rev 630780252)"
2007-08-31T22:37:17+00:00,154901264,154358029,0,83.165.171.111,Inflation,
2015-07-14T17:36:25+00:00,671431929,671228857,0,Huon,Inflation,revert unsourced changes and unreliable external link
2011-12-24T17:43:08+00:00,467524932,467524911,0,ClueBot NG,Inflation,"Reverting possible vandalism by [[Special:Contributions/117.225.114.216|117.225.114.216]] to version by Lawrencekhoo. False positive? [[User:ClueBot NG/FalsePositives|Report it]]. Thanks, [[User:ClueBot NG|ClueBot NG]]. (780666) (Bot)"
2022-01-14T12:02:48+00:00,1065609817,1065232068,0,MKFI,Inflation,Undid revision 1065232068 by [[Special:Contributions/Impraveenhugar|Impraveenhugar]] ([[User talk:Impraveenhugar|talk]]) Restore inflation map.
2012-07-03T07:49:52+00:00,500452582,500452446,0,Teles,Inflation,Reverted edits by [[Special:Contributions/49.205.16.95|49.205.16.95]] ([[User talk:49.205.16.95|talk]]) to last revision by DBigXray ([[WP:HG|HG]])
2006-06-22T04:14:56+00:00,59941690,59864440,0,64.48.78.5,Inflation,/* Prices */
2009-12-16T13:17:37+00:00,332031871,332020601,0,Mitch Ames,Inflation,[[WP:UNDO|Undid]] revision 332020601 by [[Special:Contributions/122.161.67.58|122.161.67.58]] ([[User talk:122.161.67.58|talk]])
2010-09-11T10:23:23+00:00,384177517,384041858,0,Citation bot 1,Inflation,Citations: [Pu184]Tweaked: journal.  You can [[WP:UCB|use this bot]] yourself. [[WP:DBUG|Report bugs here]].
2016-12-17T22:10:49+00:00,755414475,754743183,0,Loraof,Inflation,"/* top */ rv changes of Dec. 13. [[Monetary inflation]] has its own article. ""Inflation"" virtually always, for economists and laypeople, means price inflation. The dab page reflects this"
2017-05-11T16:45:48+00:00,779886429,779886288,0,Cuñado,Inflation,Undid revision 779886288 by [[Special:Contributions/197.225.197.46|197.225.197.46]] ([[User talk:197.225.197.46|talk]])
2010-02-17T20:27:10+00:00,344677852,344675705,0,Wknight94,Inflation,Reverted to revision 344607040 by [[Special:Contributions/212.154.231.78|212.154.231.78]]; Unsourced. ([[WP:TW|TW]])
2010-06-26T19:15:08+00:00,370290459,370289917,0,Cretog8,Inflation,Undid revision 370289917 by [[Special:Contributions/87.103.95.251|87.103.95.251]] ([[User talk:87.103.95.251|talk]]) looks like sock
2008-01-23T03:21:03+00:00,186270215,185845263,0,Foofighter20x,Inflation,reworded part of intro to include more economic concepts
2008-12-12T01:48:03+00:00,257402065,257126021,0,Exander,Inflation,/* See also */
2019-08-15T00:10:44+00:00,910863373,910682916,0,Гармонический Мир,Inflation,
2019-12-31T03:42:01+00:00,933303870,933302268,0,Subwaymuncher,Inflation,Reverted 1 edit by [[Special:Contributions/97.95.10.99|97.95.10.99]] ([[User talk:97.95.10.99|talk]]) to last revision by DanielRigal ([[WP:TW|TW]])
2011-09-20T01:37:10+00:00,451428692,451428680,0,ClueBot NG,Inflation,"Reverting possible vandalism by [[Special:Contributions/68.67.240.57|68.67.240.57]] to version by 192.223.163.5. False positive? [[User:ClueBot NG/FalsePositives|Report it]]. Thanks, [[User:ClueBot NG|ClueBot NG]]. (599637) (Bot)"
2021-08-02T11:22:38+00:00,1036732870,1036610589,0,2409:4041:2E1E:3F51:0:0:2489:9C0D,Inflation,
2009-12-28T15:42:50+00:00,334557457,332031871,0,Crosbiesmith,Inflation,/* Gold standard */ Given ref does not mention representative money;  removed unsourced commentary
2016-08-02T04:32:05+00:00,732619522,732616810,0,EvergreenFir,Inflation,Reverted 1 edit by [[Special:Contributions/111.221.54.22|111.221.54.22]] identified as test/vandalism using [[WP:STiki|STiki]]
2010-10-01T03:57:16+00:00,388039996,388039952,0,186.45.133.4,Inflation,
2020-09-22T23:55:27+00:00,979818517,979750908,0,Kwesi Yema,Inflation,Reverting possible vandalism or testing edit by anonymous user.
2014-07-26T23:05:33+00:00,618601469,618580364,0,M Tracy Hunter,Inflation,/* History */ add img
2014-03-24T15:25:49+00:00,601043692,600600688,0,41.58.207.108,Inflation,/* Negative */
2018-01-19T03:52:51+00:00,821225197,821224832,0,Bongwarrior,Inflation,Reverted edits by [[Special:Contribs/75.44.16.248|75.44.16.248]] ([[User talk:75.44.16.248|talk]]) to last version by ClueBot NG
2019-05-20T12:03:55+00:00,897951833,896910699,0,CryBite,Inflation,
2008-11-14T16:41:46+00:00,251792193,251791904,0,Sintaku,Inflation,Reverted edits by [[Special:Contributions/24.61.64.174|24.61.64.174]] to last version by Marlith ([[WP:HG|HG]])
2008-09-01T14:40:13+00:00,235598199,235597913,0,Hazel77,Inflation,Reverted edits by [[Special:Contributions/203.208.91.119|203.208.91.119]] ([[User talk:203.208.91.119|talk]]) to last version by Vary
2009-12-21T02:22:59+00:00,332967697,299443868,0,DSisyphBot,Inflation (disambiguation),robot Adding [[fr:Inflation (homonymie)]]
2012-02-02T09:45:08+00:00,474550835,433330155,0,EmausBot,Inflation (disambiguation),r2.7.2+) (Robot: Adding [[tl:Implasyon]]
2007-05-13T12:25:13+00:00,130524936,94806601,0,Gdr,Inflation (disambiguation),fix link and correct explanation
2008-04-15T20:13:50+00:00,205864002,185320626,0,Lenoxus,Inflation (disambiguation),"add * [[Inflatable]], anything designed to expand with the insertion of air"
2009-04-07T20:36:41+00:00,282414742,282413563,0,False vacuum,Inflation (disambiguation),"de-linked [[INFLATE]], since that topic appears to be covered at [[DEFLATE]]"
2022-09-04T12:03:30+00:00,1108440875,1108262630,0,Leschnei,Inflation (disambiguation),/* See also */ formatted a DAB link
2013-08-29T03:14:55+00:00,570620179,554413843,0,122.111.6.22,Inflation (disambiguation),/* Education */ linked to Academic inflation wiki page.
2016-08-14T09:48:06+00:00,734437548,707610975,0,Lawrencekhoo,Inflation (disambiguation),"/* See also */ not correct place for this, should be in MOS"
2010-09-06T20:27:58+00:00,383317481,332967697,0,BD2412,Inflation (disambiguation),"/* See also */Fixing [[Wikipedia:Disambiguation pages with links|links to disambiguation pages]], improving links, other minor cleanup tasks, replaced: {{disambiguation}} → {{disambig}} using [[Project:AWB|AWB]]"
2021-01-31T12:38:01+00:00,1003944147,961350614,0,77.1.84.95,Inflation (disambiguation),/* Natural sciences */ the rate of expansion isn't a velocity so it can't be set in relation to the speed of light
2021-12-10T18:09:01+00:00,1059643768,1003944147,0,73.170.147.86,Inflation (disambiguation),/* Economics */
2008-09-10T07:57:55+00:00,237456566,236833865,0,Strait,Inflation (disambiguation),remove discussion from this disambiguation page
2013-05-10T07:58:58+00:00,554413843,541088523,0,Maschen,Inflation (disambiguation),spruce up
2016-02-29T20:41:57+00:00,707610975,696145025,0,BaronBifford,Inflation (disambiguation),
2006-12-17T01:36:02+00:00,94806601,94806440,0,H2g2bob,Inflation (disambiguation),
2017-08-31T17:45:00+00:00,798226508,794618767,0,Neveselbert,Inflation (disambiguation),/* top */replaced: commonly refers to → most commonly refers to using [[Project:AWB|AWB]]
2020-04-29T14:26:19+00:00,953875524,953875279,0,Graham87,Inflation (disambiguation),Graham87 moved page [[Inflation (economics)]] to [[Inflation (disambiguation)]] over a redirect without leaving a redirect: revert
2019-11-21T10:32:10+00:00,927267483,926262336,0,Sazshasr,Instant noodles,/* Nepal */Added comment
2012-08-05T14:42:13+00:00,505909608,505880255,0,98.113.150.246,Instant noodles,Undid revision 505880255 by [[Special:Contributions/114.76.204.142|114.76.204.142]] ([[User talk:114.76.204.142|talk]])
2019-11-28T00:27:45+00:00,928277686,923692286,0,96.244.204.197,Intel Core (microarchitecture),Eliminated run-on sentences.
2015-02-13T23:39:09+00:00,647022785,644520312,0,Crosbiesmith,Intel Core (microarchitecture),rm. bolding of linked names
2020-11-29T02:10:46+00:00,991247073,990600457,0,Monkbot,International law,[[User:Monkbot/task 18|Task 18 (cosmetic)]]: eval 44 templates: del empty params (9×); hyphenate params (18×);
2009-01-31T15:14:16+00:00,267631231,267521549,0,Nallimbot,Intel Core (microarchitecture),robot  Adding: [[ko:코어 마이크로아키텍처]]
2011-02-02T17:53:00+00:00,411615339,411614831,0,216.54.86.51,Intel Core (microarchitecture),/* Synchronous memory modules */
2016-02-14T01:36:58+00:00,704864613,699460413,0,Cyberbot II,Intel Core (microarchitecture),"Rescuing 1 sources, flagging 0 as dead, and archiving 1 sources. #IABot"
2013-10-23T20:38:25+00:00,578453902,578197270,0,Visite fortuitement prolongée,Intel Core (microarchitecture),/* Roadmap */
2006-10-19T03:52:51+00:00,82355410,82340252,0,DHR,Intel Core (microarchitecture),/* Technology */ clarify that Intel and AMD measure TDP differently
2019-02-23T12:12:44+00:00,884701161,884701076,0,IAmIntel,Intel Core (microarchitecture),/* Motherboard compatibility */ core 2 not new
2021-08-27T19:38:46+00:00,1040971485,1040970307,0,CodeTalker,International law,Reverted 1 edit by [[Special:Contributions/205.169.85.186|205.169.85.186]] ([[User talk:205.169.85.186|talk]]) to last revision by HelenDegenerate
2022-05-01T12:59:18+00:00,1085609801,1084599673,0,JoeNMLC,International law,/* See also */ add Hanse Law School
2009-09-11T00:53:40+00:00,313106164,311922934,0,Wereon,International law,"non-nation states, such as Switzerland or Belgium, are not any different under international law"
2019-11-21T22:11:03+00:00,927343829,925856581,0,213.124.183.200,International law,/* East African Community */
2010-05-10T23:25:17+00:00,361370747,361349313,0,Bento00,International law,"Reverted to revision 357600350 by [[Special:Contributions/93.136.242.249|93.136.242.249]]; remove ext. link to law school, per [[WP:ELNO]]. ([[WP:TW|TW]])"
2009-11-05T21:57:26+00:00,324159860,323718696,0,Full-date unlinking bot,Interstate 45,Unlinking full-dates. [[User:Full-date unlinking bot|Details here]]. Codes: AMreg(×32)
2012-05-24T22:42:41+00:00,494224908,493868979,0,ZéroBot,Interstate 45,r2.7.1) (Robot: Adding [[es:Interestatal 45]]
2012-01-09T03:53:52+00:00,470374501,468095513,0,FrescoBot,James Nachtwey,Bot: [[User:FrescoBot/Links|link syntax/spacing]] and minor changes
2008-12-12T14:25:04+00:00,257496086,257260711,0,222.154.115.70,James Nachtwey,
2014-08-27T23:43:39+00:00,623104780,609090329,0,86.69.133.14,Jean-Claude Romand,/* Fiction */
2020-12-05T15:07:37+00:00,992489177,990571737,0,Chenopodiaceous,Jean-Claude Romand,Fix dangler
2016-12-14T12:28:13+00:00,754774469,754736303,0,BD2412,Jenna Jameson,/* Relationships and health */Per consensus in discussion at [[Talk:New York#Proposed action to resolve incorrect incoming links]] using [[Project:AWB|AWB]]
2013-06-18T18:30:52+00:00,560487422,559267679,0,ImageRemovalBot,Jenna Jameson,Removing links to deleted file [[:File:Family Guy Jenna Jameson.jpg]]
2016-07-31T01:03:06+00:00,732301254,731260418,0,Vanished Account Byeznhpyxeuztibuo,Jesús Huerta de Soto,Disambiguated: [[Bruce Caldwell]] → [[Bruce Caldwell (historian of economic thought)]]
2018-05-13T00:19:14+00:00,840927729,837794332,0,Hmains,John Atchison,standard quote handling in WP;standard Apostrophe/quotation marks in WP;add/change/refine category; MOS fixes using [[Project:AWB|AWB]]
2022-10-12T21:59:41+00:00,1115726368,1115448250,0,Rathfelder,John Gray (philosopher),±[[Category:20th-century economists]]→[[Category:20th-century British economists]]; ±[[Category:21st-century economists]]→[[Category:21st-century British economists]] using [[WP:HC|HotCat]]
2011-09-18T01:09:51+00:00,451065079,419425936,0,RjwilmsiBot,John Atchison,/* References */Adding Persondata using [[Project:AWB|AWB]] (7822)
2008-08-14T02:37:05+00:00,231816855,228936640,0,79.145.140.107,Jesús Huerta de Soto,
2014-06-20T17:39:15+00:00,613713033,605121840,0,64.4.93.100,John Gray (philosopher),not wikiquote
2010-05-27T07:18:06+00:00,364443972,364443596,0,Lawrencekhoo,John Maynard Keynes,/* Personal life */
2019-01-15T04:37:39+00:00,878497184,878471727,0,209.140.230.169,John Maynard Keynes,
2013-07-17T22:27:09+00:00,564711433,564710814,0,Srich32977,John Maynard Keynes,Cleaned up using [[WP:AutoEd|AutoEd]] | [[WP:UCB|Assisted by Citation bot r432]]
2011-12-30T23:26:22+00:00,468678315,468143589,0,Hmains,John Maynard Keynes,"copyedit, clarity edits, MOS implementation, and/or AWB general fixes using [[Project:AWB|AWB]]"
2010-08-05T06:15:23+00:00,377254508,377196123,0,Citation bot 1,John Maynard Keynes,"Citations: [Pu180] added: date. Tweaked: year, isbn, url, issue.  You can [[WP:UCB|use this bot]] yourself! [[WP:DBUG|Report bugs here]]."
2018-11-19T12:05:59+00:00,869565696,869179582,0,Warofdreams,John Maynard Keynes,"/* External links */ not actually on the exec, was a similarly named individual"
2014-05-11T03:29:43+00:00,608002466,600320484,0,Neo-Jay,John Stalker,specified [[Central Television]] to [[ITV Central]]
2008-03-11T19:04:15+00:00,197535347,186714885,0,87.194.113.42,John Stalker,/* Trivia */
2006-12-07T04:33:57+00:00,92630661,91895450,0,Retired username,June Child,per afd
2009-05-26T05:21:18+00:00,292376148,290899277,0,OrphanBot,Kali,Removing [[:File:A deity of Kali dressed as krishna.jpg|image]] with no source information.  Such images that are older than seven days may be deleted at any time.
2006-08-30T08:01:33+00:00,72778886,71476101,0,213.78.85.170,June Child,
2012-09-29T05:42:35+00:00,515109131,513656751,0,Soulsdone3,Kali,
2021-04-28T18:35:52+00:00,1020370216,1018631923,0,ScottishFinnishRadish,Karnataka,/* Economy */ rm line sourced to sponsored content per edit request by Reddy.sea
2022-04-01T16:54:42+00:00,1080496943,1079915571,0,UrielAcosta,Karnataka,Orthography
2016-08-15T21:25:29+00:00,734661017,733064520,0,112.133.236.64,Katpadi,/* Bus route */
2008-10-08T18:03:38+00:00,243944110,242166836,0,GDibyendu,Katpadi,added politics section
2016-11-03T11:52:48+00:00,747621647,747616363,0,Ianim,King's Cross Central,Changed name of landowner. And updated the names of the park and square.
2021-10-13T15:09:04+00:00,1049736153,1047862502,0,Glen Glens,Kenneth Grahame,WP:SURNAME
2016-05-10T15:35:11+00:00,719583388,719411221,0,Talskiddy,Kenneth Grahame,/* Writing */
2014-05-16T02:34:51+00:00,608778013,608777950,0,115.124.3.98,Keynesian economics,/* Wages and spending */
2020-03-10T19:09:08+00:00,944925356,941296782,0,Citation bot,King's Cross Central,"Alter: title. Add: ol, author pars. 1-1. Removed URL that duplicated unique identifier. | You can [[WP:UCB|use this bot]] yourself. [[WP:DBUG|Report bugs here]]. | Activated by [[User:AManWithNoPlan]] | All pages linked from [[User:AManWithNoPlan/sandbox2]]."
2013-02-10T16:18:56+00:00,537559400,537358843,0,EmausBot,Korat Royal Thai Air Force Base,r2.7.2+) (Robot: Modifying [[th:ท่าอากาศยานกองบิน1 นครราชสีมา]] to [[th:ท่าอากาศยานกองบิน 1 นครราชสีมา]]
2009-12-23T04:05:23+00:00,333449779,323869678,0,SmackBot,Kremer prize,Delink dates ([[WP:MOSUNLINKDATES]]) using [[Project:AWB]]
2008-05-06T15:49:18+00:00,210589079,210589017,0,Ndunruh,Korat Royal Thai Air Force Base,/* 6234th (Provisional) Tactical Fighter Wing */ typo
2020-10-20T18:39:29+00:00,984555126,982813583,0,TooManyFingers,Keynesian economics,"The last sentence of the second paragraph was unintentionally ambiguous (did it mean the interpretations made BY Keynes, or the interpretations OF him?). Hopefully clearer now."
2006-11-07T14:37:10+00:00,86273940,86055732,0,62.231.61.35,Kremer prize,
2018-03-19T15:05:18+00:00,831238613,831232634,0,Arjayay,Kshatriya,Undid revision 831232634 by [[Special:Contributions/2405:204:630C:B5:D388:E7D3:2D88:77B8]] Unsourced
2012-03-30T09:21:08+00:00,484670822,484670561,0,Sitush,Kshatriya,Undid revision 484669274 by [[Special:Contributions/117.227.52.219|117.227.52.219]] ([[User talk:117.227.52.219|talk]]) rvv - IP is roaming but has been inserting the same content elsewhere previously
2014-11-19T08:40:38+00:00,634506899,634505364,0,75.159.26.79,Last Train Home (film),/* Reception */
2014-06-09T06:41:47+00:00,612177307,611871004,0,Koavf,Led Zeppelin,/* 2000s and beyond */
2017-12-14T22:31:19+00:00,815452874,815452567,0,Martinevans123,Led Zeppelin,Reverted 2 pending edits by [[Special:Contributions/191.184.203.118|191.184.203.118]] to revision 815189141 by BrunoMacDonald: previous name not alias?
2020-07-19T05:02:50+00:00,968401447,968400982,0,DocWatson42,Lego Mindstorms,Cleaned up references and other matters.
2021-02-20T17:07:25+00:00,1007923474,1006682427,0,Kennethckovar,Lego Mindstorms,/* External links */
2014-07-14T16:48:01+00:00,616933230,613749365,0,130.89.162.33,Lego Mindstorms,/* Programming Language */
2020-07-03T12:33:35+00:00,965789389,942716738,0,TheFrenchTickler1031,Leonard Fraser,Fixed typo
2011-05-14T03:59:05+00:00,429027611,414257724,0,RjwilmsiBot,Leonard Fraser,"/* Crimes */CiteCompletion, works/pubs: 1, using [[Project:AWB|AWB]] (7701)"
2012-10-12T19:17:44+00:00,517451445,517428264,0,46.115.43.119,Libertarianism,markup
2006-09-08T18:27:03+00:00,74566172,74472959,0,Xyzzyplugh,Libertarianism,/* Sites about libertarianism */  removed broken link to blog.  blogs rarely belong linked to anyway
2020-04-01T12:13:04+00:00,948505802,948255808,0,Ignacio Bibcraft,Libertarianism,"/* Allegation of utopianism */ -> grammar. ""Its"" was missing a subject."
2012-03-23T18:50:35+00:00,483568681,483568354,0,Byelf2007,Libertarianism,more precise
2013-04-30T19:12:59+00:00,552927804,552927552,0,Carolmooredc,Libertarianism,[[Help:Reverting|Reverted]] edits by [[Special:Contributions/69.174.175.254|69.174.175.254]] ([[User talk:69.174.175.254|talk]]) to last version by Cerabot
2011-02-03T02:33:35+00:00,411705351,410295166,0,114.76.129.122,Lego Mindstorms,Added to programming languages 'Enchanting'
2008-05-03T01:25:36+00:00,209820603,209805954,0,TheOldJacobite,Libertarianism,Rv to earlier version.
2011-11-13T01:40:10+00:00,460374075,460373821,0,Fifelfoo,Libertarianism,Yet more undiscussed tag removal reverted
2016-08-01T22:30:25+00:00,732584396,732539321,0,Somedifferentstuff,Libertarianism,
2013-05-22T19:32:17+00:00,556313971,556243581,0,Adam9389,Libertarianism,Inserted and sourced etymology in the lead.
2012-04-30T15:05:48+00:00,489960122,489958629,0,North8000,Libertarianism,"Undid revision 489958629 by [[Special:Contributions/Inijones|Inijones]] ([[User talk:Inijones|talk]])  Numerous issues.  Anarchism is total eliminatoin, not reduction of government.  Also we decided to not expand anarchism further here."
2009-06-05T00:43:49+00:00,294487128,293884941,0,ArdClose,Libertarianism,/* Political usage */
2017-06-24T06:01:00+00:00,787228881,786964932,0,Here2help,Libertarianism,/* Personal autonomy */ comma edit
2021-12-10T13:52:43+00:00,1059608704,1059606106,0,Omnipaedista,Libertarianism,[[WP:BRD]]
2009-01-21T05:06:53+00:00,265430319,265390589,0,Carolmooredc,Libertarianism,[[WP:UNDO|Undid]] revision 265390589 by [[Special:Contributions/Atomela|Atomela]] ([[User talk:Atomela|talk]])do not replace sourced material with unsourced WP:OR; prove point at talk w/WP:RS
2020-06-19T05:00:46+00:00,963323461,963309656,0,Pfhorrest,Libertarianism,Undid revision 963309656 by [[Special:Contributions/2600:1702:960:9630:2D4C:D441:8014:BAC1|2600:1702:960:9630:2D4C:D441:8014:BAC1]] ([[User talk:2600:1702:960:9630:2D4C:D441:8014:BAC1|talk]])
2009-11-07T21:49:34+00:00,324528348,324092972,0,98.109.105.37,Libertarianism,"changed ""personal"" to ""work"""
2008-08-11T00:57:43+00:00,231131113,231110134,0,Carolmooredc,Libertarianism,[[WP:UNDO|Undid]] revision 231110134 by [[Special:Contributions/CounterEconomics|CounterEconomics]] ([[User talk:CounterEconomics|talk]])removed POV opinion not from WP:RS
2007-10-28T00:15:04+00:00,167530179,167414420,0,89.182.128.181,Libertarianism,"/* History */ Afaik Smith was supporting intervention when necessary, for instance against monopolies. Check source!"
2006-05-28T06:59:03+00:00,55535498,55494513,0,Irgendwer,Libertarianism,/* Libertarianism and politics */  revert Rehpotsirhc's vandalism
2016-12-16T04:52:32+00:00,755091926,753704030,0,Here2help,Libertarianism,
2017-11-24T15:21:41+00:00,811869845,811560617,0,Narky Blert,Libertarianism,Link to DAB page repaired
2022-05-14T05:26:16+00:00,1087732349,1087571762,0,Wikideas1,Libertarianism,/* Social contract theory */ typo
2008-10-09T15:50:25+00:00,244153911,244084784,0,Carolmooredc,Libertarianism,"/* History */ beefed up original ref; removed ref that only refs to orginial and not really [[WP:RS]] for facts, except about itself; see wiki policy"
2020-11-07T14:48:28+00:00,987511508,987058502,0,Davide King,Libertarianism,ce; unnecessary blank spaces left; add Scholars distinguish
2007-10-12T03:48:07+00:00,163971449,163971222,0,Operation Spooner,Libertarianism,
2009-01-08T04:21:39+00:00,262684869,262666029,0,Wingspeed,Libertarianism,/* Libertarian socialism */rm unsourced
2018-06-09T04:48:19+00:00,845072688,845066121,0,PohranicniStraze,Libertarianism,Undid revision 845066121 by [[Special:Contributions/1.4.138.129|1.4.138.129]] ([[User talk:1.4.138.129|talk]]) rv OR/opinionating
2008-09-28T17:38:03+00:00,241570866,241570616,0,TheOldJacobite,Libertarianism,"/* General */ ---Removed antiwar.com and Lew Rockwell; both transcend libertarianism; neither are mainstream, either."
2016-03-08T15:31:46+00:00,708987031,708983938,0,AnomieBOT,Libertarianism,Dating maintenance tags: {{Weasel inline}}
2013-09-16T07:04:53+00:00,573120462,573085759,0,Eduen,Libertarianism,redundant as previous edition by me already makes this separation more explicit
2015-01-19T09:50:16+00:00,643182590,643065364,0,109.130.191.133,Libertarianism,/* See also */
2022-09-08T05:07:06+00:00,1109135179,1107639440,0,Citation bot,Libertarianism,Add: date. | [[WP:UCB|Use this bot]]. [[WP:DBUG|Report bugs]]. | Suggested by Abductive | #UCB_toolbar
2019-04-24T16:17:42+00:00,893948355,893947994,0,104.193.155.131,Libertarianism,Undid revision 893947994 by [[Special:Contributions/104.193.155.131|104.193.155.131]] ([[User talk:104.193.155.131|talk]])
2010-08-27T22:17:56+00:00,381391803,381390729,0,FrescoBot,Libertarianism,Bot: links syntax and spacing
2010-01-03T14:17:24+00:00,335634779,335361737,0,JokerXtreme,Libertarianism,removed weasel words
2014-02-21T21:10:28+00:00,596544794,596486854,0,Somedifferentstuff,Libertarianism,Undid revision 596444404 by [[Special:Contributions/Scott Illini|Scott Illini]] - Discuss on talk.
2009-10-24T04:54:10+00:00,321703524,321702276,0,Fifelfoo,Libertarianism,[[WP:UNDO|Undid]] don't change cited text
2022-07-07T19:57:47+00:00,1096961791,1096511725,0,Citation bot,Libertarianism,"Alter: title, template type. Add: doi, pages, issue, volume, journal, url. Removed proxy/dead URL that duplicated identifier. Removed parameters. Some additions/deletions were parameter name changes. | [[WP:UCB|Use this bot]]. [[WP:DBUG|Report bugs]]. | Suggested by Abductive | #UCB_webform 2793/3850"
2014-12-21T14:56:38+00:00,639050950,639050817,0,212.13.112.18,Libertarianism,/* Libertarian theorists */
2014-08-29T21:38:00+00:00,623365953,623354756,0,Somedifferentstuff,Libertarianism,"Sageo, you need to chill."
2021-09-12T00:16:41+00:00,1043785907,1043775811,0,Qowert,Libertarianism,"Undid revision 1043775811 by [[Special:Contributions/Redyellowbluegreen1515|Redyellowbluegreen1515]] ([[User talk:Redyellowbluegreen1515|talk]]) Please see [[MOS:PMC]]. The other part of your edit also broke a bluelink, as that is the title of the article it's linking to."
2017-03-18T15:52:15+00:00,770944651,770943503,0,Jmcgnh,Libertarianism,Undid revision 770943503 by [[Special:Contributions/2601:280:4100:F985:355A:C9B0:62F7:62C4|2601:280:4100:F985:355A:C9B0:62F7:62C4]] Discuss on talk page before removing again. Goldman fits in with the left libertarian aspects this article.
2006-06-27T20:02:13+00:00,60894010,60712096,0,Onias,Libertarianism,
2008-10-24T16:08:48+00:00,247404220,247403901,0,Carolmooredc,Libertarianism,/* History */ format
2013-12-27T21:39:23+00:00,587977116,587960808,0,MisterDub,Libertarianism,Changed two instances of same REF to a named REF tag
2008-01-06T10:07:48+00:00,182502585,182152488,0,82.32.67.37,Libertarianism,
2010-03-12T16:10:07+00:00,349440497,349386980,0,141.211.183.139,Libertarianism,
2021-12-02T17:31:30+00:00,1058295892,1058295220,0,Wbm1058,Libertarianism,/* Liberalism */ proper name
2015-12-14T14:43:57+00:00,695210974,695202221,0,Vituzzu,Libertarianism,Reverted edits by [[Special:Contribs/79.41.99.202|79.41.99.202]] ([[User talk:79.41.99.202|talk]]) to last version by Bgwhite
2017-12-02T18:16:25+00:00,813250659,813132417,0,KolbertBot,Libertarianism,Bot: [[User:KolbertBot|HTTP→HTTPS]] (v477)
2006-09-24T21:08:45+00:00,77599795,77553386,0,TimBentley,Libertarianism,Disambiguation link repair - [[Wikipedia:Disambiguation pages with links|You can help!]]
2014-03-03T01:25:57+00:00,597893802,597893781,0,K6ka,Libertarianism,Reverted edits by [[Special:Contributions/98.24.155.34|98.24.155.34]] ([[User talk:98.24.155.34|talk]]) to last revision by Goethean ([[WP:HG|HG]])
2010-07-12T02:00:54+00:00,373004036,373004008,0,Whisky drinker,Libertarianism,Reverted edits by [[Special:Contributions/75.143.161.23|75.143.161.23]] to last version by BigK HeX ([[User:Ale_jrb/Scripts/igloo|GLOO]])
2015-06-25T19:16:10+00:00,668658133,668564731,0,Toddy1,Libertarianism,Undid revision 668564731 by [[Special:Contributions/Sophroson|Sophroson]] ([[User talk:Sophroson|talk]]) judgement is the correct English spelling.
2020-10-13T12:51:18+00:00,983298061,983100729,0,Omnipaedista,Libertarianism,add ext. link
2013-07-12T16:42:06+00:00,563984987,563978757,0,MisterDub,Libertarianism,Grammar fixes: lowercase headings per MoS; corrected misspelling
2013-11-21T09:45:31+00:00,582649979,582639343,0,North8000,Libertarianism,"Article does not urgently need highly controversial  undiscussed edits.  Particularly ""right"" libertarian term."
2012-08-12T16:01:04+00:00,507056535,505044384,0,Tripodics,Libertarianism,"/* American capitalists */ Include Hospers, and the NAP that became the ""pledge"" of the LP."
2010-10-20T17:51:40+00:00,391875405,391190773,0,R'n'B,Libertarianism,[[WP:INTDABLINK]]
2007-08-25T00:03:44+00:00,153453820,153364282,0,J Milburn,Libertarianism,Remove spaces before refs
2012-06-17T17:42:31+00:00,498051949,497483800,0,Srich32977,Libertarianism,fixed [[MOS:DASH|dashes]] using a [[User:GregU/dashes.js|script]]
2014-10-15T21:38:18+00:00,629768369,629687272,0,Omnipaedista,Libertarianism,standardized punctuation
2016-06-05T09:46:44+00:00,723801384,723735343,0,PBS-AWB,Libertarianism,modification to template Cite SEP and possibly some gen fixes using [[Project:AWB|AWB]]
2015-05-04T17:30:22+00:00,660801737,660801242,0,Somedifferentstuff,Libertarianism,/* Contemporary libertarian socialism */ Changed link to parent article.
2015-03-14T01:25:35+00:00,651275012,651274208,0,Bryce Carmony,Libertarianism,mergefrom template
2015-07-09T15:25:28+00:00,670688548,669788109,0,12.229.154.34,Libertarianism,spelling
2006-12-30T06:57:00+00:00,97296538,97283720,0,67.177.209.232,Libertarianism,"/* Objectivism */  added ""philosopher"" to  describe Rand (her preferred self-description)"
2008-04-03T11:24:27+00:00,203020971,202996933,0,C mon,Libertarianism,rvv
2009-02-25T17:52:37+00:00,273230799,273209156,0,Carolmooredc,Libertarianism,[[WP:UNDO|Undid]] revision 273209156 by [[Special:Contributions/146.145.2.199|146.145.2.199]] ([[User talk:146.145.2.199|talk]])chronological use less POV
2010-02-28T23:46:28+00:00,346980888,346980172,0,MutantPlatypus,Libertarianism,Fixed cite error
2009-01-21T00:27:43+00:00,265390589,265312669,0,Atomela,Libertarianism,"Of COURSE they're not synonyms. But libertarian socialism is a FORM of anarchism, the most common form. It's not seperate from anarchism."
2007-03-06T04:14:55+00:00,112987598,112825433,0,Schaefer,Libertarianism,/* See also */ Rem links that are either dead or duplicates of links already incorporated with the article text.
2013-07-16T18:45:57+00:00,564545796,563984987,0,Mogism,Libertarianism,"/* Contemporary libertarianism */Cleanup/[[WP:AWB/T|Typo fixing]], [[WP:AWB/T|typos fixed]]: a a → a using [[Project:AWB|AWB]]"
2021-03-06T20:55:07+00:00,1010699990,1010609939,0,Omnipaedista,Libertarianism,rv per MOS:DOCTCAPS
2020-11-21T15:16:42+00:00,989878240,989631393,0,Davide King,Libertarianism,/* Philosophy */ unsourced
2007-10-21T00:26:44+00:00,165951042,165887280,0,Barneca,Libertarianism,[[WP:UNDO|Undid]] revision 165887280 by [[Special:Contributions/41.242.87.42|41.242.87.42]] ([[User talk:41.242.87.42|talk]]) rvv
2007-08-06T08:20:12+00:00,149501858,149464453,0,Joseph20202021,Libertarianism,Minor Changes
2017-02-28T07:59:03+00:00,767843937,767835573,0,Finx,Libertarianism,Undid revision 767835573 by [[Special:Contributions/IWillBuildTheRoads|IWillBuildTheRoads]] ([[User talk:IWillBuildTheRoads|talk]])
2006-09-05T06:02:56+00:00,73897705,71784093,0,128.214.177.217,Libor,
2008-05-18T21:16:33+00:00,213328038,213307709,0,Operation Spooner,Libertarianism,/* Philosophical basis */ Clearer.
2012-06-14T05:40:27+00:00,497507033,496454477,0,ZéroBot,Lingchi,r2.7.1) (Robot: Adding [[ml:ആയിരം മുറിവുകളിലൂടെ വധശിക്ഷ]]
2007-08-06T16:10:47+00:00,149564751,148839417,0,Dan100,Lingchi,
2015-11-05T10:51:30+00:00,689170246,689170208,0,JDAWiseman,Libor,/* Currency */
2018-01-11T18:28:20+00:00,819866437,814293736,0,Marcocapelle,Liquidity crisis,removed [[Category:Systemic risk]] using [[WP:HC|HotCat]] non-defining characteristic
2009-09-13T07:26:09+00:00,313526544,309313314,0,RuleOfThe9th,Lion Air Australia,"/* Safety */ Apparently, four;Garuda, Mandala, Airfast, and Premiair"
2019-11-22T08:41:58+00:00,927404932,926192089,0,Premeditated Chaos,Lion Air Australia,[[:Wikipedia:Articles for deletion/Lion Air Australia]] closed as redirect ([[WP:XFDC|XFDcloser]])
2014-01-06T10:13:19+00:00,589424426,581722817,0,166.70.38.198,Liquidity crisis,lc
2013-06-11T16:25:41+00:00,559412235,550574198,0,Edward,Liquidity crisis,link [[Law of one price]] using [[User:Edward/Find link|Find link]]
2020-05-01T12:37:30+00:00,954249487,950384282,0,Mohanad,Liquidity crisis,removed [[Category:Financial problems]]; added [[Category:Financial crises]] using [[WP:HC|HotCat]]
2014-08-11T16:40:53+00:00,620790679,589424426,0,Dewritech,Liquidity crisis,"clean up, [[WP:AWB/T|typo(s) fixed]]: above mentioned → above-mentioned using [[Project:AWB|AWB]]"
2012-07-05T16:50:50+00:00,500819745,500036344,0,Rjwilmsi,Liquidity crisis,/* A model of liquidity crisis */Format plain DOIs using [[Project:AWB|AWB]] (8087)
2013-11-15T04:04:57+00:00,581722817,559412235,0,76.120.168.91,Liquidity crisis,change link
2018-04-13T15:27:37+00:00,836243930,836226897,0,Adèle Fisher,List of monetary reformers,/* See also */
2014-07-29T04:56:15+00:00,618921902,611145465,0,203.174.135.50,List of monetary reformers,"/* Publicly issued, debt-free money or interest-free credit */"
2016-02-18T01:06:53+00:00,705530794,705530735,0,59.167.67.161,List of monetary reformers,
2021-04-12T22:12:48+00:00,1017463747,960142294,0,Helper201,List of monetary reformers,Added people per what is cited on their respective Wikipedia pages.
2013-03-22T07:04:13+00:00,546212205,532772381,0,Addbot,List of monetary reformers,"[[User:Addbot|Bot:]] Migrating 1 interwiki links, now provided by [[Wikipedia:Wikidata|Wikidata]] on [[d:q6628997]]"
2020-02-19T13:23:26+00:00,941584321,900208321,0,Lepricavark,List of people with surname Tully,/* top */added listas parameter
2016-12-18T21:02:37+00:00,755560118,754367452,0,BD2412bot,List of railway accidents and incidents in India,"/* 2009 */Fixing [[Wikipedia:Disambiguation pages with links|links to disambiguation pages]], replaced: state of [[Orissa]] → state of [[Orissa, India|Orissa]] using [[Project:AWB|AWB]]"
2008-11-19T01:43:47+00:00,252696761,252696665,0,Hugo999,List of railway accidents and incidents in India,/* References */
2011-06-20T22:33:44+00:00,435357559,420567551,0,212.183.128.0,MBK Center,Spelling correction
2015-06-28T18:56:36+00:00,669079935,657570144,0,FrescoBot,MBK Center,Bot: [[User:FrescoBot/Links|link syntax]]
2017-10-16T02:50:51+00:00,805548155,771990557,0,Whats new?,MDA (TV series),added [[Category:Television series by Screentime]] using [[WP:HC|HotCat]]
2013-03-19T15:55:16+00:00,545452223,545452104,0,198.236.64.243,MDA (TV series),/* Synopsis */
2015-10-16T18:40:36+00:00,686058748,685843341,0,Trappist the monk,MS Silja Serenade,list fix; using [[Project:AWB|AWB]]
2021-07-26T23:09:18+00:00,1035654789,1035607064,0,Traktorimies,MS Silja Serenade,
2017-03-07T05:34:23+00:00,769037034,768850466,0,GünniX,Mainstream economics,Reverted vandalism by 112.198.101.202
2010-03-22T05:21:14+00:00,351308172,337744234,0,Cydebot,Mainstream economics,"Robot - Moving category Schools of economic thought and methodology to History of economic thought, methodology, and heterodox approaches per [[WP:CFD|CFD]] at [[Wikipedia:Categories for discussion/Log/2010 March 10]]."
2021-04-18T13:47:51+00:00,1018516698,1002906266,0,Strickesel,Mainstream economics,Fixed missing spaces found by [[Wikipedia:Typo Team/moss]] – you can help!
2018-01-18T21:00:25+00:00,821171658,821170793,0,Loraof,Mainstream economics,/* Methods */ ce
2010-01-14T05:23:44+00:00,337744234,328321284,0,WildBot,Mainstream economics,Robot-assisted disambiguation: Financial crisis of 2007–2009 - Changed link(s) to [[financial crisis of 2007–2010]]
2011-06-17T22:27:49+00:00,434845147,432834431,0,Thomasmeeks,Mainstream economics,"1st sentence:  ""widely-accepted"" as a [[gloss]] of  ""mainstream"""
2014-10-19T17:21:16+00:00,630260869,626095476,0,Citation bot,Mainstream economics,[Cat579]Add: author pars. 2-2. Removed redundant parameters. You can [[WP:UCB|use this bot]] yourself. [[WP:DBUG|Report bugs here]].
2021-01-26T15:50:36+00:00,1002906266,995108375,0,Notthedarkweb,Mainstream economics,"Nonsensical paragraph that confuses 1) academic economics with the policy-making regime self-titled by it's purveyors as ordoliberalism and 2) conflation of development economics (a subdiscipline of academic economics) with ""alternatives"" to the mainstream."
2020-03-12T20:33:00+00:00,945259524,940968748,0,Florian Blaschke,Mainstream economics,cap
2015-06-10T04:18:09+00:00,666289633,655922139,0,Apipia,Mainstream economics,
2008-12-23T01:48:57+00:00,259639635,253652537,0,LilHelpa,Mainstream economics,spelling: influencial -> influential
2018-08-31T21:17:27+00:00,857466428,857466374,0,PoliceSheep99,Mainstream economics,
2016-07-25T18:41:38+00:00,731494328,730786158,0,Der Golem,Mainstream economics,/* References */ +reflist
2015-04-11T03:57:23+00:00,655922139,655432247,0,67.149.0.137,Mainstream economics,
2014-10-30T19:50:49+00:00,631793674,631793634,0,173.25.13.90,Malinvestment,
2009-08-01T18:17:31+00:00,305493937,305442902,0,Cretog8,Malinvestment,Reverted 2 edits by [[Special:Contributions/122.104.51.130|122.104.51.130]]; Rvt probablr sock. ([[WP:TWINKLE|TW]])
2014-12-06T20:19:57+00:00,636926944,636926687,0,Drunkmoth,Malinvestment,Typo from previous edit.
2013-04-22T09:01:46+00:00,551599907,542148476,0,KLBot2,Malinvestment,"Bot: Migrating 1 interwiki links, now provided by [[Wikidata]] on [[:d:Q1735646]]"
2014-01-06T14:06:06+00:00,589444165,564817904,0,Alex1011,Malinvestment,/* See also */ +Market failure
2020-01-08T10:54:57+00:00,934775008,934774870,0,Anton Ösgård,Malinvestment,Corrected wrong upper case
2017-05-23T18:28:11+00:00,781870389,773798227,0,Cydebot,Malinvestment,Robot - Speedily moving category Business cycle theory to [[:Category:Business cycle theories]] per [[WP:CFDS|CFDS]].
2022-08-04T20:05:33+00:00,1102383838,1102383676,0,72.168.144.11,Malinvestment,More so
2010-10-22T12:45:58+00:00,392207200,392196561,0,Mike Rosoft,Malinvestment,This was a constructive edit
2022-03-11T04:46:58+00:00,1076446445,1076444783,0,Srich32977,Malinvestment,Adding/improving reference(s)
2011-07-21T16:47:51+00:00,440679432,440679347,0,Jive Dadson,Malinvestment,
2009-03-02T08:06:46+00:00,274374270,259630826,0,Kevborg,Malinvestment,fixed some grammar and minor changes for clarity
2018-11-27T23:52:32+00:00,870947535,833102457,0,173.68.85.51,Malinvestment,fixed comma misplacement
2010-04-22T16:16:33+00:00,357644498,357607796,0,BigK HeX,Malinvestment,clarify
2011-02-18T17:52:22+00:00,414649564,414648085,0,AnomieBOT,Malinvestment,Dating maintenance tags: {{Citation needed}}
2016-05-18T01:49:18+00:00,720806523,636926944,0,Bender235,Malinvestment,/* top */clean up; http->https (see [[WP:VPR/Archive 127#RfC: Should we convert existing Google and Internet Archive links to HTTPS?|this RfC]]) using [[Project:AWB|AWB]]
2021-12-09T05:53:32+00:00,1059396781,1058822657,0,WikiCleanerBot,Malinvestment,v2.04b - [[User:WikiCleanerBot#T20|Bot T20 CW#61]] - Fix errors for [[WP:WCW|CW project]] (Reference before punctuation)
2011-09-09T03:40:33+00:00,449266418,449251545,0,BigK HeX,Malinvestment,for balance
2021-10-16T08:03:20+00:00,1050180414,1048930679,0,WikiCleanerBot,Malinvestment,v2.04b - [[User:WikiCleanerBot#T20|Bot T20 CW#61]] - Fix errors for [[WP:WCW|CW project]] (Reference before punctuation)
2012-01-20T10:03:14+00:00,472225120,472225029,0,Byelf2007,Malinvestment,
2017-04-04T13:24:45+00:00,773798227,760866884,0,Dqd,Malinvestment,+ Austrian business cycle theory
2007-05-20T15:20:53+00:00,132228006,127793582,0,203.34.248.61,Malone,/* People */
2006-05-20T18:00:36+00:00,54221749,53818600,0,81.233.90.182,Malone,Added Alexis
2020-08-16T23:19:44+00:00,973387382,973387260,0,JudgeJells,Mamdouh Habib,"/* 2001 to 2005 imprisonment: Pakistan, Egypt, Afghanistan, Cuba */ There is not going to be a citation for this"
2019-09-21T21:27:19+00:00,917015795,903125868,0,Monkbot,Mamdouh Habib,[[User:Monkbot/task 16: remove replace deprecated dead-url params|Task 16]]: replaced (5×) / removed (0×) deprecated |dead-url= and |deadurl= with |url-status=;
2007-07-12T01:32:25+00:00,144090772,138111794,0,Bearcat,Mamdouh Habib,
2009-01-10T09:59:59+00:00,263150806,262749457,0,Utcursch,Maqbool,disambiguate  using [[Project:AutoWikiBrowser|AWB]]
2006-06-26T12:07:10+00:00,60644145,60635673,0,Shoemortgage,Maqbool,"corrected ""Maqbesool"" to ""Maqbool"""
2015-12-11T05:10:49+00:00,694733502,678284906,0,BattyBot,Mamdouh Habib,/* Mamdouh Ibrahim Ahmed Habib v. George Bush */fixed citation template(s) to remove page from [[:Category:CS1 maint: Extra text]] & [[WP:AWB/GF|general fixes]] using [[Project:AWB|AWB]] (11754)
2009-09-27T03:07:25+00:00,316418711,316083688,0,Xqbot,"Matara, Sri Lanka",robot Adding: [[fr:Matara]]
2018-10-18T07:09:57+00:00,864594346,864587237,0,Dan arndt,"Matara, Sri Lanka",Fixing style/layout errors
2015-06-24T01:53:28+00:00,668400744,666083916,0,2601:CB:8100:6470:B148:8C58:D3BF:BD6D,Maturity transformation,"Corrected content.  Maturity transformation isn't the domain of fractional reserve banks, nor is it inherently destabilizing."
2013-01-10T00:38:02+00:00,532280451,526364579,0,Cydebot,Maturity transformation,Robot - Moving category Banking terms and equipment to [[:Category:Banking terms]] per [[WP:CFD|CFD]] at [[Wikipedia:Categories_for_discussion/Log/2012_December_22]].
2018-09-05T16:18:50+00:00,858180488,772629479,0,GreenC bot,Maturity transformation,Remove 1 stray access-date. ([[User:GreenC bot/Job 5|GreenC bot job #5]])
2014-04-11T05:26:33+00:00,603700885,603671336,0,JRSpriggs,Meltdown (Woods book),"JRSpriggs moved page [[Meltdown: A Free-Market Look at Why the Stock Market Collapsed, the Economy Tanked, and the Government Bailout Will Make Things Worse]] to [[Meltdown (book)]] over redirect: previous move was to an unreasonably long title and unn..."
2021-04-22T23:43:17+00:00,1019372365,966792226,0,Trialpears,Meltdown (Woods book),/* top */Remove link to book per [[Wikipedia:Village pump (proposals)/Archive 177#Deprecate linking to Wikipedia books in templates and articles]]
2011-09-14T14:39:31+00:00,450475564,449025128,0,Jo3sampl,Meltdown (Woods book),typos; wording
2010-01-14T06:13:57+00:00,337750343,323844171,0,WildBot,Meltdown (Woods book),Robot-assisted disambiguation: Financial crisis of 2007–2009 - Changed link(s) to [[financial crisis of 2007–2010]]
2018-03-08T20:36:33+00:00,829467286,655168919,0,The Transhumanist,Methuselah Mouse Prize,Add template to categorize redirect using [[Project:AWB|AWB]]
2006-11-22T12:33:47+00:00,89435856,78590173,0,RobotG,Michael Bartosh,"Bot: Changing Category:Apple employees per [[WP:CFD|CFD]], see [[Wikipedia:Categories for deletion/Log/2006 November 14]]"
2007-08-02T04:35:34+00:00,148649673,131974540,0,Rxnd,Michael Bartosh,Added details on death
2013-03-14T00:38:53+00:00,543963885,543712942,0,Addbot,Michael O'Riordan,"[[User:Addbot|Bot:]] Migrating 1 interwiki links, now provided by [[Wikipedia:Wikidata|Wikidata]] on [[d:q6833194]]"
2013-01-20T19:46:49+00:00,534045482,534045411,0,Klemen Kocjancic,Michael O'Riordan,/* References */
2019-12-25T05:13:28+00:00,932342830,843410815,0,Davide King,Michael Rowbotham,/* The Grip of Death */ add comma
2018-05-29T00:06:17+00:00,843410815,828089245,0,DuncanHill,Michael Rowbotham,[[Harold Perkin]]
2021-04-24T02:49:19+00:00,1019570687,932342830,0,Tony1,Michael Rowbotham,"[[User:Ohconfucius/script|Script]]-assisted fixes: per [[MOS:NUM]], [[MOS:CAPS]], [[MOS:LINK]]"
2017-06-10T03:12:52+00:00,784797623,754364928,0,InternetArchiveBot,Michael Rowbotham,Rescuing 0 sources and tagging 1 as dead. #IABot (v1.4beta)
2008-05-10T03:58:32+00:00,211398844,207780880,0,Gregalton,Michael Rowbotham,/* See also */
2010-05-22T05:07:32+00:00,363504912,361721540,0,Joshua Scott,Michael Rowbotham,has refs: {{BLP unsourced}} -> {{BLP sources}} using [[Project:AWB|AWB]]
2013-05-09T23:34:34+00:00,554366617,554340833,0,Beaucouplusneutre,Milton Friedman,/* Welfare */ [[welfare dependency]]
2020-04-06T12:16:04+00:00,949426617,944387530,0,Fintor,Minsky moment,/* See also */
2011-04-07T08:33:25+00:00,422827685,422013065,0,Amercury168,Milton Friedman,
2012-05-20T06:49:15+00:00,493453168,464352798,0,Rjwilmsi,Minsky moment,Format plain DOIs using [[Project:AWB|AWB]] (8060)
2019-10-17T14:03:42+00:00,921723397,917988720,0,Marco Ciaramella,Minsky moment,Paragraphs
2007-11-20T10:34:56+00:00,172678153,155049018,0,Malcolma,Minsky moment,cat
2010-08-25T21:56:33+00:00,380996943,366574613,0,Umofomia,Minsky moment,+cn
2010-06-07T15:06:45+00:00,366574613,361234970,0,Diaspore,Minsky moment,
2015-03-23T08:57:05+00:00,653131136,653131090,0,71.174.170.108,Minsky moment,Fixed typo
2018-11-26T06:53:00+00:00,870659793,867595592,0,Rkinch,Minsky moment,"/* See also */ Add [[Economic bubble]] and [[Margin (finance)]], alphabetize"
2015-02-19T09:35:58+00:00,647854395,625436878,0,132.66.235.28,Minsky moment,
2016-02-03T04:33:25+00:00,703046866,696375959,0,Brozhnik,Minsky moment,
2017-05-15T23:53:13+00:00,780577417,770242178,0,Гармонический Мир,Minsky moment,
2014-06-23T20:46:49+00:00,614141802,614141717,0,173.63.75.86,Minsky moment,/* See also */
2011-10-06T03:22:34+00:00,454177419,454124286,0,Bkwillwm,Minsky moment,pk cite
2021-05-21T01:22:33+00:00,1024253337,976732755,0,Citation bot,Minsky moment,Add: work. Removed parameters. Some additions/deletions were parameter name changes. | [[WP:UCB|Use this bot]]. [[WP:DBUG|Report bugs]]. | Suggested by Abductive | [[Category:Use dmy dates from January 2013]] | #UCB_Category 3545/4303
2021-01-09T14:37:07+00:00,999306596,987403776,0,Monkbot,Monetary inflation,[[User:Monkbot/task 18|Task 18 (cosmetic)]]: eval 1 template: hyphenate params (1×);
2007-06-25T10:33:37+00:00,140492703,140140093,0,Pestis~enwiki,Monetary inflation,Re-removed the private contact information
2008-02-08T13:19:52+00:00,189949589,184007344,0,Rinconsoleao,Monetary inflation,That equation is not the [[Fisher equation]]
2022-07-15T15:32:05+00:00,1098383054,1098379848,0,AnomieBOT,Monetary inflation,Dating maintenance tags: {{Refimprove}}
2018-10-18T17:28:56+00:00,864663874,864659643,0,Mean as custard,Monetary inflation,Reverted edits by [[Special:Contribs/Æthereal|Æthereal]] ([[User talk:Æthereal|talk]]) to last version by Sir Tony Britton
2015-03-11T15:32:22+00:00,650913637,650537147,0,GRosado,Monetary inflation,/* Austrian view */Removed criticisms because they don't belong here they belong on the Austrian School page criticisms section.
2017-03-20T09:17:56+00:00,771226205,757334020,0,JzG,Monetary inflation,Synthesis form primary sources
2011-10-02T11:32:19+00:00,453515507,453425231,0,Diza,Monetary reform,/* Fiat money */  important subtlety
2010-02-25T01:36:30+00:00,346208992,342659120,0,75.58.122.101,Monetary reform,/* Examples of government issued debt-free money */
2020-02-12T15:54:24+00:00,940445036,940401866,0,Ravensfire,Monetary reform,Reverted 1 edit by [[Special:Contributions/Weinstein'sWeirdWeiner|Weinstein'sWeirdWeiner]] ([[User talk:Weinstein'sWeirdWeiner|talk]]): Rv Kik sock ([[WP:TW|TW]])
2021-12-28T08:16:18+00:00,1062409129,1043243123,0,BrownHairedGirl,Monetary reform,"some ref cleanup tags should be AFTER </ref>, replaced: {{Primary source inline|date=April 2021}}</ref> → </ref>{{Primary source inline|date=April 2021}}"
2008-05-18T15:10:56+00:00,213256416,213256222,0,SheamusPatt,Monetary reform,/* External links */
2017-09-10T01:29:50+00:00,799818426,769329871,0,KolbertBot,Monetary reform,Bot: [[User:KolbertBot|HTTP→HTTPS]]
2013-09-15T03:32:43+00:00,572969786,571097894,0,OldCdn,Monetary reform,added 2 external links
2015-05-06T05:06:41+00:00,661055904,652660235,0,72.219.174.62,Monetary reform,Added Bank of International Settlements to International organizations that are involved with topic.
2012-01-21T21:54:43+00:00,472504425,469643972,0,CocuBot,Monetary reform,r2.7.1) (Robot: Removing [[uk:Грошова реформа]]
2009-05-14T05:26:15+00:00,289822683,284793970,0,Equilibrium007,Monetary reform,"Improved fractional-reserve banking section and removed some factual inaccuracies, but the article still needs work"
2007-02-11T09:18:01+00:00,107283806,107067801,0,84.73.61.8,Monetary reform,[[cs:Měnová reforma]]
2017-03-08T21:35:21+00:00,769329871,755757826,0,Loraof,Monetary reform,/* top */ as per [[WP:REFER]]
2010-05-28T06:05:21+00:00,364619110,364613131,0,Lawrencekhoo,Monetary reform,"/* External links */ not relevant to this page, cleanup per [[WP:EL]]"
2013-05-31T11:57:41+00:00,557672049,557671726,0,SPECIFICO,Monetary reform,/* Central Bank Independence */ Remove OR POV language.
2018-10-14T06:21:43+00:00,863961731,863961697,0,101.189.27.237,Monetary reform,
2019-02-23T11:03:03+00:00,884695265,879423727,0,Certes,Monetary reform,typo: has lead (via [[WP:JWB]])
2014-12-23T18:24:25+00:00,639368692,639368510,0,Dtellett,Monetary reform,"/* Alternative money systems */  removed microcredit: worthy, but not a monetary reform"
2016-12-20T00:40:22+00:00,755757826,755248798,0,Gwillhickers,Monetary reform,/* References */
2020-11-05T20:26:34+00:00,987242869,977666806,0,LearnMore,Monetary reform,General proofreading.
2006-05-18T12:20:03+00:00,53847458,52915212,0,217.83.122.248,Monetary reform,de:Währungsreform
2021-02-08T01:03:29+00:00,1005507470,1002213816,0,Tassedethe,Monetary reform,unlink as deleted
2012-11-24T10:40:12+00:00,524628445,524163432,0,EmausBot,Monetary reform,r2.7.3) (Robot: Adding [[uk:Грошова реформа]]
2014-07-21T21:54:34+00:00,617903877,613337832,0,Miszatomic,Monetary reform,{{Wikiquote}}
2012-11-08T04:14:59+00:00,521944153,521915111,0,Lawrencekhoo,Monetary reform,Reverted 2 edits by [[Special:Contributions/203.209.200.93|203.209.200.93]] ([[User talk:203.209.200.93|talk]]): Rv banned user. ([[WP:TW|TW]])
2009-11-20T04:32:04+00:00,326871955,326386234,0,203.220.80.135,Monetary reform,/* Return to the gold standard */
2018-09-16T08:10:23+00:00,859783899,859361957,0,Bolarno,Monetary reform,Category:Public finance
2015-12-15T15:42:26+00:00,695367097,695360918,0,Ultraexactzz,Monetary reform,Undid revision 695360918 by [[Special:Contributions/Lyinglike|Lyinglike]] ([[User talk:Lyinglike|talk]])
2008-08-12T08:16:23+00:00,231411755,231411544,0,Sabine McNeill,Monetary reform,/* External links */
2016-05-18T01:51:29+00:00,720806803,709127692,0,Bender235,Monetary reform,clean up; http->https (see [[WP:VPR/Archive 127#RfC: Should we convert existing Google and Internet Archive links to HTTPS?|this RfC]]) using [[Project:AWB|AWB]]
2010-04-26T22:14:52+00:00,358508021,350556016,0,SieBot,Monetary reform,robot Adding: [[et:Rahareform]]
2011-04-19T22:32:33+00:00,424930663,424386183,0,ASmartKid,Monetary reform,/* Central Bank Independence */
2020-01-05T13:03:39+00:00,934237062,933637032,0,82.141.237.113,Monetary reform,/* Free banking */
2008-06-24T00:49:24+00:00,221323165,220305964,0,203.217.12.75,Monetary reform,Minor grammer issues corrected (plural/singular confusion)
2007-08-16T06:28:29+00:00,151552489,149996553,0,Maktimothy,Monetary reform,/* See also */
2021-06-12T17:04:32+00:00,1028227672,1019425832,0,Oppa gangnam psy,Monetary reform,Straightfwd intros. Subjective quotes with zero citations removed.
2020-02-27T14:38:31+00:00,942891704,942379130,0,Ravensfire,Monetary reform,Reverted 5 edits by [[Special:Contributions/YouCan'tPrintYourWayOutOfAPandemic|YouCan'tPrintYourWayOutOfAPandemic]] ([[User talk:YouCan'tPrintYourWayOutOfAPandemic|talk]]): Rv sock ([[WP:TW|TW]])
2006-05-12T23:07:41+00:00,52915212,50993675,0,CRGreathouse,Monetary reform,Disambiguation
2018-04-15T01:57:18+00:00,836482252,836482177,0,SPECIFICO,Monetary reform,rv sock
2010-10-14T12:15:47+00:00,390681245,390681173,0,Elockid,Monetary reform,{{pp-semi|small=yes}}
2014-04-09T00:54:46+00:00,603382319,603381847,0,Freshacconci,Monetary reform,Reverted edits by [[Special:Contribs/203.174.135.50|203.174.135.50]] ([[User talk:203.174.135.50|talk]]) to last version by 194.168.147.250
2016-06-21T17:19:29+00:00,726356464,722664653,0,Diza,Monetary reform,/* See also */
2012-06-26T09:40:42+00:00,499418779,499418134,0,Bobrayner,Monetary reform,removed rant
2013-03-13T19:39:59+00:00,543907475,543714649,0,Canadianpolisci,Monetary reform,/* External links */ added an additional related organization and related book
2013-11-19T14:20:26+00:00,582375991,582373331,0,Ravensfire,Monetary reform,Undid revision 582373331 by [[Special:Contributions/195.188.183.89|195.188.183.89]] ([[User talk:195.188.183.89|talk]])
2021-01-23T10:45:37+00:00,1002213816,987242869,0,Monkbot,Monetary reform,[[User:Monkbot/task 18|Task 18 (cosmetic)]]: eval 22 templates: hyphenate params (5×);
2021-09-09T03:09:34+00:00,1043243123,1028227672,0,Broccoli and Coffee,Monetary reform,"/* External links */ [[WP:ELNO]], removing commercial links"
2019-05-23T06:01:51+00:00,898381535,884695265,0,103.35.129.38,Monetary reform,/* See also */
2011-09-01T21:48:43+00:00,447929929,444965566,0,Mats33,Monetary reform,/* See also */
2013-02-17T10:26:35+00:00,538696558,538696427,0,78.86.72.180,Monetary reform,/* External links */
2014-06-17T21:20:09+00:00,613337832,603382319,0,Arthur Rubin,Monetary reform,/* See also */ remove deleted article
2015-01-26T15:20:52+00:00,644260994,644234183,0,Ravensfire,Monetary reform,"Reverted [[WP:AGF|good faith]] edits by [[Special:Contributions/85.159.131.196|85.159.131.196]] ([[User talk:85.159.131.196|talk]]): No part of that quote, not supported by teh source of that quote. ([[WP:TW|TW]])"
2010-03-18T07:29:23+00:00,350556016,349935270,0,JAnDbot,Monetary reform,robot Removing: [[vi:Cải cách tiền tệ]]
2008-01-27T13:04:51+00:00,187243480,186487609,0,121.181.47.171,Monetary reform,typo fix thhe -> the
2008-11-24T17:47:02+00:00,253824045,253823995,0,MastCell,Monetary reform,sp template
2020-06-26T10:56:22+00:00,964583901,949580957,0,BHGbot,Monetary reform,"[[WP:BHGbot 6]] ([[User:BHGbot/6/List 5|List 5]]): eponymous category first, per [[MOS:CATORDER]]; [[WP:GENFIXES]]"
2019-07-24T07:10:14+00:00,907632258,905247521,0,103.35.129.38,Monetary reform,
2007-05-24T07:51:04+00:00,133125036,132669174,0,Haemo,Monetary reform,fixing undue weight
2017-11-13T08:10:23+00:00,810088844,799818426,0,Cyberbot II,Monetary reform,Tagging page with {{[[Template:Blacklisted-links|Blacklisted-links]]}}.  Blacklisted links found. ([[en:WP:PEACHY|Peachy 2.0 (alpha 8)]])
2008-05-08T08:49:24+00:00,210991609,210984627,0,Gregalton,Monetary reform,/* External links */ rmv non-encyclopedic source
2012-10-01T03:36:54+00:00,515411741,514226379,0,66.177.44.13,Monetary reform,
2016-10-18T02:59:41+00:00,744894718,744880843,0,Kahlores,Monetary reform,/* Social Credit and the provision of debt-free money directly from government */
2019-06-26T19:47:09+00:00,903619140,903611107,0,Ravensfire,Monetary reform,"/* International monetary reform */ not an economist, added by probable COI editor"
2015-03-20T03:29:44+00:00,652660235,652658126,0,Bobrayner,Monetary reform,/* External links */ dead link
2021-03-29T18:04:57+00:00,1014906427,1010065712,0,Sadads,Monetary reform,link [[overconsumption]] using [[:en:User:Edward/Find link|Find link]]
2016-05-29T13:26:01+00:00,722664653,720806803,0,Marcocapelle,Monetary reform,removed [[Category:Finance]]; added [[Category:Metallism]] using [[WP:HC|HotCat]]
2019-12-07T13:28:14+00:00,929678766,929677185,0,Girth Summit,Monetary reform,"Reverted 3 edits by PrepareForMonetaryRevolution: Not clear why this has been inserted into this sentence. Also, this source appears to be a piece of polemic, rather than an [[WP:RS|]].  ([[WP:TW|TW]])"
2011-12-22T16:04:33+00:00,467200120,461622304,0,WikitanvirBot,Monetary reform,r2.7.1) (Robot: Adding [[uk:Грошова реформа]]
2019-09-08T18:25:40+00:00,914665444,914033954,0,Gazamp,Monetary reform,/* See also */ Added [[Portal:Money]]
2020-04-07T09:32:54+00:00,949580957,948201515,0,InternetArchiveBot,Monetary reform,Rescuing 3 sources and tagging 0 as dead.) #IABot (v2.0
2011-11-01T07:36:26+00:00,458424848,456530649,0,122.162.63.181,Monetary reform,wikify
2011-09-26T02:11:12+00:00,452455978,452454853,0,Ravensfire,Monetary reform,Undid revision 452454853 by [[Special:Contributions/108.36.164.22|108.36.164.22]] ([[User talk:108.36.164.22|talk]])
2011-08-15T12:41:04+00:00,444965566,443636485,0,ZéroBot,Monetary reform,r2.7.1) (robot Adding: [[no:Valutareform]]
2009-01-05T10:45:20+00:00,262071303,262065822,0,John Quiggin,Monetary reform,rv multiply banned user
2012-09-23T22:16:53+00:00,514226379,513705491,0,Bobrayner,Monetary reform,don't be silly
2009-06-23T07:29:39+00:00,298082409,298082336,0,203.58.14.194,Monetary reform,/* Fractional Reserve Banking */
2019-01-21T04:16:41+00:00,879423727,879388273,0,Ravensfire,Monetary reform,Reverted 1 edit by [[Special:Contributions/DaveHamill|DaveHamill]] ([[User talk:DaveHamill|talk]]): Purely promotional - need a decent scondary source. ([[WP:TW|TW]])
2018-02-25T14:36:25+00:00,827574462,827240111,0,Adèle Fisher,Monetary reform,/* External links */
2007-11-18T06:17:42+00:00,172230628,172223070,0,Hugo999,Monetary reform,
2010-07-31T06:35:22+00:00,376385434,373803036,0,Chobot,Monetary reform,robot Adding: [[ko:화폐 개혁]]
2019-10-17T14:29:46+00:00,921726698,921705875,0,Ravensfire,Monetary reform,Reverted 1 edit by [[Special:Contributions/CryptoGold|CryptoGold]] ([[User talk:CryptoGold|talk]]): Rv POV edit - significant claim in Wikipedia voice (and KiK sock edit) ([[WP:TW|TW]])
2019-12-09T03:33:50+00:00,929925478,929925397,0,PrepareForMonetaryRevolution,Monetary reform,/* See also */
2022-07-26T01:42:58+00:00,1100461982,1097921322,0,GreenC bot,Monetary reform,Rescued 1 archive link. [[User:GreenC/WaybackMedic_2.5|Wayback Medic 2.5]]
2019-12-18T20:50:50+00:00,931424268,930662579,0,InternetArchiveBot,Monetary reform,Bluelinking 2 books for [[WP:V|verifiability]].) #IABot (v2.1alpha3
2009-08-14T14:46:25+00:00,307945360,298082409,0,Stijn Calle,Monetary reform,/* See also */
2014-02-18T20:31:50+00:00,596079892,582375991,0,69.170.63.155,Monetary reform,/* Reserve Requirements */
2009-03-16T21:46:26+00:00,277732871,274657827,0,159.121.166.99,Monetary reform,/* Fractional Reserve Banking */
2012-03-26T11:44:48+00:00,483997637,483926167,0,RedBot,Monetary reform,r2.7.2) (Robot: Adding [[pl:Reforma walutowa]]
2016-03-09T08:27:38+00:00,709127692,695367097,0,BG19bot,Monetary reform,Remove blank line(s) between list items per [[WP:LISTGAP]] to fix an accessibility issue for users of [[screen reader]]s. Do [[WP:GENFIXES]] and cleanup if needed. Discuss this at [[Wikipedia talk:WikiProject Accessibility#LISTGAP]]
2018-06-25T14:57:18+00:00,847463082,847428579,0,2.110.93.203,Monetary reform,Replaced blacklisted link to Mises
2014-09-20T16:02:47+00:00,626356772,626356241,0,Ehrenkater,Monetary reform,/* top */
2011-05-25T16:59:40+00:00,430873292,429543537,0,Reissgo,Monetary reform,/* External links */
2008-04-24T09:22:33+00:00,207816427,207781041,0,Gregalton,Monetary reform,"One article does not exist, the other is not a notable monetary reformer"
2009-03-03T10:41:42+00:00,274657827,274656954,0,Cameron Scott,Monetary reform,removed non-notable author
2021-03-03T16:55:38+00:00,1010065712,1008505433,0,Tom.Reding,Monetary reform,"+{{[[Template:Authority control|Authority control]]}} ([[d:Q65224|1 ID]] from [[Wikidata]]), [[WP:GenFixes]] on"
2007-08-08T16:18:19+00:00,149996553,133125036,0,212.22.16.194,Monetary reform,
2020-07-01T00:02:10+00:00,965377764,964583901,0,GreenC bot,Monetary reform,Removed 1 archive link; reformat 2 links. [[User:GreenC/WaybackMedic_2.5|Wayback Medic 2.5]]
2009-03-23T09:41:24+00:00,279116717,279116650,0,122.104.48.17,Monetary reform,/* Fractional Reserve Banking */
2020-09-10T06:45:15+00:00,977666806,965377764,0,Citation bot,Monetary reform,Add: url. | You can [[WP:UCB|use this bot]] yourself. [[WP:DBUG|Report bugs here]]. | Suggested by SemperIocundus | via #UCB_webform
2008-04-10T21:12:45+00:00,204780707,204435032,0,Chendy,Monetary reform,/* External links */
2013-09-01T16:35:25+00:00,571097894,570824320,0,Bobrayner,Monetary reform,just another advocacy page
2021-04-23T08:02:08+00:00,1019425832,1018912889,0,Cewbot,Monetary reform,"[[User:Cewbot/log/20150916/configuration|Normalize {{Multiple issues}}]]: Create {{Multiple issues}} with 3 maintenance template(s): Unreliable sources, Partisan sources, Primary sources"
2009-10-28T05:11:10+00:00,322482455,319589312,0,79.183.9.120,Monetary reform,/* Money no longer represents any intrinsic value */
2010-09-10T05:17:48+00:00,383970308,376385434,0,Hmains,Monetary reform,"copyedit, MOS and or AWB general fixes using [[Project:AWB|AWB]]"
2013-04-04T12:47:56+00:00,548654174,548645901,0,SPECIFICO,Monetary reform,Undid revision 548645901 by [[Special:Contributions/AnotherBoringEditor|AnotherBoringEditor]] ([[User talk:AnotherBoringEditor|talk]])Removing text not verified by cited sources.
2011-08-08T06:59:16+00:00,443636485,443196410,0,Lawrencekhoo,Monetary reform,Reverted 1 edit by [[Special:Contributions/118.209.163.128|118.209.163.128]] ([[User talk:118.209.163.128|talk]]): Fails [[WP:ELYES]]. ([[WP:TW|TW]])
2009-05-22T10:55:52+00:00,291590014,291153142,0,Rubinbot,Monetary reform,robot  Adding: [[ru:Денежная реформа]]
2012-11-21T09:01:25+00:00,524163432,521944153,0,Makecat-bot,Monetary reform,r2.7.3) (Robot: Adding [[sk:Menová reforma]]
2011-01-21T08:05:29+00:00,409127507,409127237,0,Sean.hoyland,Monetary reform,"rm non-notable, non-RS/hate site biblebelievers.org.au"
2018-09-13T15:05:30+00:00,859361957,857217635,0,Bolarno,Monetary reform,Added sections: arguments for and against reform
2008-05-24T10:13:22+00:00,214602600,213256416,0,Y23,Monetary reform,added link to an illuminating film
2009-01-23T18:15:50+00:00,265953565,265953495,0,MastCell,Monetary reform,{{pp-semi-sock}}
2019-11-21T02:26:51+00:00,927218607,926896974,0,Lawrencekhoo,Monetary reform,/* top */ rv sock
2008-10-03T20:45:35+00:00,242826141,242413133,0,24.138.57.74,Monetary reform,"/* Central Bank ""Independence"" */"
2010-09-20T04:14:13+00:00,385851702,385709601,0,Lawrencekhoo,Monetary reform,Reverted 6 edits by [[Special:Contributions/DebtDukkha|DebtDukkha]]; Rv sock of banned user. ([[WP:TW|TW]])
2015-03-12T18:23:31+00:00,651080693,651061167,0,Jonpatterns,Monetary reform,/* See also */ the United States
2009-02-24T13:00:36+00:00,272952040,270922655,0,DumbBOT,Monetary reform,removing a protection template from a non-protected page ([[User:DumbBOT/Protection|info]])
2014-10-23T08:23:42+00:00,630765179,630764871,0,Bruce1ee,Money,"Reverted 1 pending edit by [[Special:Contributions/Abishaiimmanuel|Abishaiimmanuel]] to revision 630706700 by Scalhotrod: correct as it was (""four"" rhymes with ""store"")"
2014-09-12T19:45:21+00:00,625280936,625280387,0,Barek,Money,Reverted edits by [[Special:Contribs/Mahadani82|Mahadani82]] ([[User talk:Mahadani82|talk]]) to last version by Eassin
2010-01-25T22:02:52+00:00,340008538,338259704,0,Morte,Money as Debt,Fix names
2016-06-21T17:24:33+00:00,726357124,726356928,0,Diza,Money as Debt,/* top */
2022-01-05T15:45:47+00:00,1063915100,1063915061,0,Hairy Dude,Money as Debt,/* Money as Debt III */grammar
2018-12-26T02:56:57+00:00,875376086,869136226,0,Tony1,Money as Debt,"[[User:Ohconfucius/script|Script]]-assisted fixes: per [[MOS:NUM]], [[MOS:CAPS]], [[MOS:LINK]]"
2016-02-10T21:49:06+00:00,704317217,670024810,0,80.215.138.246,Money as Debt,/* Critical response */ spelling
2006-09-19T16:01:14+00:00,76601761,75602258,0,Spiffy sperry,Monmouth,clarify disamb. note
2020-12-23T03:44:42+00:00,995835173,995418358,0,InternetArchiveBot,Monmouth,Rescuing 1 sources and tagging 0 as dead.) #IABot (v2.0.7
2014-12-16T23:48:29+00:00,638423979,636847234,0,142.157.76.12,Moral hazard,/* Management */
2021-05-06T23:34:03+00:00,1021838797,1020313758,0,GreenC bot,Moral hazard,Removed oxfordjournals.com URL per [[Wikipedia:Link_rot/URL_change_requests#Remove_oxfordjournals.org|discussion]]. [[User:GreenC/WaybackMedic_2.5|Wayback Medic 2.5]]
2012-11-23T18:18:06+00:00,524531786,523548255,0,174.118.114.80,Moral hazard,/* External links */ added link
2010-08-18T10:40:48+00:00,379560877,379560433,0,Rinconsoleao,Moral hazard,improved wording
2020-05-16T11:39:12+00:00,956984240,953877087,0,71.237.192.101,Moral hazard,
2017-07-27T15:54:17+00:00,792617714,792006039,0,54.240.196.169,Moral hazard,Fixing up citations
2012-03-12T22:46:02+00:00,481590210,479007990,0,Bequw,Moral hazard,/* Economic theory */
2016-12-04T02:16:41+00:00,752902996,752902742,0,"Me, Myself, and I are Here",Moral hazard,"Filled in 1 bare reference(s) with [[:en:WP:REFILL|reFill]] (), alpha"
2009-05-25T05:07:34+00:00,292164069,290999008,0,203.45.97.50,Moral hazard,
2012-01-09T12:54:27+00:00,470426080,470200010,0,Diego Moya,Moral hazard,Disambig
2018-02-04T20:10:39+00:00,824011622,814199156,0,Alaney2k,Moral hazard,added prov to placename using [[Project:AWB|AWB]]
2009-06-29T23:15:10+00:00,299406247,299271423,0,SmackBot,Moral hazard,Date maintenance tags and general  fixes
2008-09-21T04:41:34+00:00,239934814,239810983,0,98.27.81.232,Moral hazard,"Corrected typo:  ""forgo"" to ""forego"""
2011-07-31T08:28:58+00:00,442325595,441759594,0,Diego Moya,Moral hazard,Context per [[wp:MOSINTRO]]
2019-07-07T21:40:29+00:00,905243397,905243245,0,Гармонический Мир,Moral hazard,/* See also */
2015-06-06T21:47:28+00:00,665810395,653437341,0,Edward,Moral hazard,link [[securitization]] using [[User:Edward/Find link|Find link]]
2010-09-25T06:38:32+00:00,386886502,385297014,0,98.228.52.153,Moral hazard,/* In management */
2013-08-09T00:49:00+00:00,567754970,564195141,0,Jvn mht,Moral hazard,spellings
2013-11-17T03:40:13+00:00,582002606,581349862,0,EJR~enwiki,Moral hazard,"replaced ""incur"" with ""result.""  Incur implies costs upon *oneself, which is the opposite of the meaning here."
2011-11-28T15:49:36+00:00,462910977,462848437,0,Srich32977,Moral hazard,Cleaned up using [[WP:AutoEd|AutoEd]]
2010-01-17T02:08:33+00:00,338288702,337826094,0,82.69.13.181,Moral hazard,/* In finance */
2022-08-25T17:15:56+00:00,1106636774,1106606921,0,Iggy the Swan,Mr. Tumnus,Restored revision 1096527397 by [[Special:Contributions/MrTumnusIsKing|MrTumnusIsKing]] ([[User talk:MrTumnusIsKing|talk]]): Rvv
2008-05-28T14:16:47+00:00,215503486,213520148,0,24.231.230.178,Mr. Tumnus,/* Other Media */
2012-04-11T19:19:30+00:00,486868203,486864516,0,Rangek,Murray Rothbard,Undid revision 486864516 by [[Special:Contributions/81.170.233.66|81.170.233.66]] ([[User talk:81.170.233.66|talk]])
2012-01-13T05:30:29+00:00,471091219,471090960,0,Carolmooredc,Murray Rothbard,move two minor points of his overall views to end; WP:Undue POV to put them up on top
2016-03-24T18:18:05+00:00,711759867,707465706,0,Srich32977,Murray Rothbard,/* External links */ Goodreads
2011-10-16T15:45:24+00:00,455858423,455816541,0,Srich32977,Murray Rothbard,Undid revision 455816541 by [[Special:Contributions/69.181.232.140|69.181.232.140]] ([[User talk:69.181.232.140|talk]])rvt unexplained change to quoted material
2007-12-11T04:02:17+00:00,177142382,177136453,0,Allixpeeke,Murray Rothbard,/* External links */
2018-05-08T22:41:04+00:00,840286766,837019621,0,MightySaiyan,Murray Rothbard,
2013-07-09T01:43:10+00:00,563458777,562199162,0,Other Choices,Murray Rothbard,Rothbard wasn't an academic historian
2013-04-29T17:21:12+00:00,552755156,552714769,0,Carolmooredc,Murray Rothbard,monoploy phrase per source; removed biased WP:OR comments on the primary sources and reflect what sources say; move Barnes to relevant section
2007-05-18T05:35:34+00:00,131717135,129873511,0,Madhava 1947,Murray Rothbard,/* External links */ +temp
2021-10-17T12:36:03+00:00,1050372308,1048497777,0,172.222.138.103,Murray Rothbard,Removed some useless adjectives that were used to manipulate truth.
2006-07-03T06:25:39+00:00,61806306,61804452,0,Intangible,Murray Rothbard,"hero alright, but this is not the forum to say that"
2010-10-17T19:31:10+00:00,391286382,390744889,0,Hall9595Hall,Murray Rothbard,"peacock term and without information since every famous author, poet, scientist or director could be called this way"
2013-08-28T17:52:42+00:00,570560435,570549336,0,BG19bot,Murray Rothbard,[[WP:CHECKWIKI]] error fix.  Broken bracket problem.  Do [[Wikipedia:GENFIXES|general fixes]] if a problem exists. - using [[Project:AWB|AWB]] (9449)
2007-04-29T16:26:18+00:00,126882825,126882328,0,128.197.37.140,NF-κB,/* Inhibitors of NF-κB */
2007-11-17T19:43:23+00:00,172134529,171550675,0,206.208.133.53,NF-κB,
2015-02-20T22:20:48+00:00,648100733,648100662,0,Delotrooladoo,Nan Witcomb,
2007-06-17T06:25:00+00:00,138711344,138707469,0,Gimboid13,National Gallery of Australia,[[WP:UNDO|Undid]] revision 138707469 by [[Special:Contributions/Monty1051|Monty1051]] ([[User talk:Monty1051|talk]])
2012-04-08T00:33:30+00:00,486172641,482644389,0,Hmains,National Gallery of Australia,"/* Major exhibitions */copyedit, clarity edits, MOS implementation, and/or AWB general fixes using [[Project:AWB|AWB]]"
2012-10-16T20:24:16+00:00,518182464,518181095,0,220.255.2.88,"National Library, Singapore",
2013-07-02T16:12:48+00:00,562563452,549639527,0,Opirnia,"National Library, Singapore",added reference
2018-01-20T03:38:06+00:00,821380901,821380753,0,87.21.153.81,Neo-Keynesian economics,
2014-07-09T00:06:28+00:00,616158241,613485598,0,Dl2000,New Christs,en-AU; fix quot
2020-02-19T21:40:11+00:00,941650060,939449404,0,Rich Farmbrough,Neo-Keynesian economics,Add short description
2022-05-23T19:03:36+00:00,1089429504,1087037514,0,Citation bot,New Christs,"Add: website, title. Changed bare reference to CS1/2. | [[WP:UCB|Use this bot]]. [[WP:DBUG|Report bugs]]. | Suggested by BrownHairedGirl | Linked from User:BrownHairedGirl/Articles_with_new_bare_URL_refs | #UCB_webform_linked 2744/3841"
2022-05-05T01:24:17+00:00,1086244944,1084660793,0,Stuart mcmillen,Nickel and Dimed,"/* See also */ adding Maid and Hand to Mouth, as similar titles"
2018-01-06T20:19:37+00:00,818995851,799702068,0,Animalparty,Nickel and Dimed,added [[Category:Books by Barbara Ehrenreich]] using [[WP:HC|HotCat]]
2013-08-16T22:15:22+00:00,568857343,567436774,0,98.229.250.105,Night of the Living Dead,
2013-01-09T20:06:21+00:00,532235492,532235315,0,DrJohnnyDiablo,Night of the Living Dead,/* Remakes */
2010-05-13T15:00:56+00:00,361897414,361896488,0,VBGFscJUn3,Non-aggression principle,"/* Inconsistency criticism */ switched ""plainly clear"" initiation of force example to involve violence instead of ""theft = force"""
2009-05-22T11:28:26+00:00,291593742,290435766,0,71.211.183.152,Non-aggression principle,Citation for NAP from contractarianism
2019-12-10T12:51:53+00:00,930130827,929978011,0,CozyandDozy,Non-aggression principle,Undid revision 929172234 by [[Special:Contributions/2600:1700:5520:E4B0:EDCF:6407:599A:381D|2600:1700:5520:E4B0:EDCF:6407:599A:381D]] ([[User talk:2600:1700:5520:E4B0:EDCF:6407:599A:381D|talk]]) remove per WP:synthesis
2012-03-08T20:06:45+00:00,480885007,480884926,0,Byelf2007,Non-aggression principle,no citation; who says?; i'm also not sure what this is supposed to mean
2017-05-17T07:59:47+00:00,780800383,777825133,0,65.60.163.73,Non-aggression principle,/* NAP does not allow for positive rights */
2011-04-19T05:21:48+00:00,424807916,424161387,0,Wehpudicabok,Non-aggression principle,/* Consequentialist criticism */ fixing punctuation order
2022-05-11T02:54:45+00:00,1087214669,1077578562,0,GreenC bot,Normie Rowe,Rescued 1 archive link. [[User:GreenC/WaybackMedic_2.5|Wayback Medic 2.5]]
2008-05-10T19:33:50+00:00,211515515,209630744,0,WereSpielChequers,Normie Rowe,reguarly regularly
2014-01-28T01:51:42+00:00,592729012,591459541,0,Monkbot,Overclocking,/* References */Fix [[Help:CS1_errors#deprecated_params|CS1 deprecated date parameter errors]]
2009-01-06T05:38:56+00:00,262250092,262249611,0,Olin Coles,Overclocking,Added appropriate external link.
2017-09-30T16:44:40+00:00,803128069,803042512,0,2A02:C7D:B36D:8200:D84F:CBF0:60E8:31D3,Paul Krugman,not pk
2020-02-24T15:47:53+00:00,942421211,942298470,0,עמירם פאל,Paul Krugman,/* External links */
2016-05-07T12:42:17+00:00,719072674,719071265,0,Srich32977,Paul Krugman,Reverted to revision 717433502 by [[Special:Contributions/Anagramology|Anagramology]] ([[User talk:Anagramology|talk]]): RVV. ([[WP:TW|TW]])
2009-05-21T11:07:25+00:00,291377523,291331225,0,SmackBot,Paul Krugman,Date maintenance tags and general  fixes
2021-05-22T03:00:29+00:00,1024434253,1024433208,0,73.71.251.64,Paul Krugman,"/* Views on technology */ ""there's been"" is not a prediction"
2011-05-29T17:08:31+00:00,431512266,430479794,0,Farrtj,Paul Krugman,/* Personal life */
2010-05-12T00:10:23+00:00,361579362,361491156,0,Lawrencekhoo,Paul Krugman,/* U.S. economic policies */ wording as from source cited
2008-12-10T08:21:29+00:00,257011592,257011469,0,Vordabois,Paul Krugman,/* Political views */
2007-06-01T10:15:04+00:00,135055820,132922546,0,Lom c,Paul Krugman,New trade theory is a different field from Krugman's contributions to the theory of currency crises
2021-07-23T09:04:02+00:00,1035041736,1034979266,0,WOSlinker,Paul Krugman,update
2014-12-12T04:01:51+00:00,637724433,637591544,0,Lawrencekhoo,Paul Krugman,Reverted to revision 636162657 by [[Special:Contributions/ClueBot NG|ClueBot NG]] ([[User talk:ClueBot NG|talk]]). ([[WP:TW|TW]])
2017-06-04T01:29:28+00:00,783696010,783695196,0,Lawrencekhoo,Paul Krugman,move book cover to more relevant place
2013-08-22T03:01:55+00:00,569667564,568021459,0,76.218.104.120,Paul Krugman,"/* Author */ rewrote sentence, and took a link off"
2007-02-08T19:58:40+00:00,106651253,106459813,0,SmackBot,Paul Krugman,Date/fix maintenance tags
2018-12-09T00:21:40+00:00,872754649,870524418,0,InternetArchiveBot,Paul Krugman,Rescuing 2 sources and tagging 0 as dead. #IABot (v2.0beta10ehf1)
2009-04-04T01:33:18+00:00,281614299,281499404,0,66.169.118.240,Paul Krugman,/* Political views */
2009-02-27T20:19:45+00:00,273722986,273483305,0,GirasoleDE,Paul Krugman,/* Awards */ linkfix
2011-12-07T16:19:57+00:00,464586931,464532536,0,FurrySings,Paul Krugman,removing 'from across the political spectrum' following discussion on talk page.
2020-06-26T23:46:40+00:00,964684123,963462979,0,OAbot,Paul Krugman,[[Wikipedia:OABOT|Open access bot]]: doi added to citation with #oabot.
2019-03-12T00:08:15+00:00,887333909,885635152,0,Vanamonde93,Paul Krugman,/* On President Trump */ consistency with the other leaders mentioned here
2015-01-19T04:38:38+00:00,643156337,643156179,0,114.109.80.120,Paul Krugman,Updated link to Krugman's nobel prize winning paper.
2014-02-12T14:25:56+00:00,595143974,593771566,0,Wikievil666,Paul Krugman,"One doesn't think academically, unless thinking of a university."
2011-11-21T03:28:27+00:00,461708243,461589948,0,Yakushima,Paul Krugman,I think you'll reduce your chances of leaving grammatical errors if you use fewer words
2014-04-05T15:49:40+00:00,602877529,602875399,0,Bishonen,Paul Krugman,"When people remove vandalism, could they please restore the original image? Just revert to non-vandalized version!"
2007-03-30T07:58:45+00:00,118988605,118065970,0,OrphanBot,Peter Schiff,Removing [[:Image:PeterSchiffBio2.jpg|image]] with no copyright information.  Such images that are older than seven days may be deleted at any time.
2021-10-06T09:05:49+00:00,1048495011,1046412966,0,Ponken,Peter Schiff,"/* External links */ changed links from YouTube to Spotify, as Rogan has changed platform"
2007-09-27T19:40:48+00:00,160759001,160758944,0,Gakusha,Peter Schiff,Reverted edits by [[Special:Contributions/68.73.193.149|68.73.193.149]] to last version by Dhartung
2017-03-15T02:33:22+00:00,770385148,770254898,0,Suite1408,Peter Schiff,New category added.
2011-10-30T19:09:57+00:00,458169429,446866377,0,87.113.14.9,Phall,
2017-06-15T16:51:25+00:00,785827378,781599929,0,Cpaaoi,Phall,typo
2013-08-30T03:50:16+00:00,570760786,557415224,0,Tcarey2,Political positions of Ron Paul,corrected grammatical error
2020-02-20T05:15:41+00:00,941711151,939865507,0,DemonDays64 Bot,Political positions of Ron Paul,HTTPS security. [[User talk:DemonDays64|Tell me]] if there's an issue with my edit. (via [[WP:JWB]])
2021-12-15T13:19:51+00:00,1060431166,1042493151,0,Lugnuts,Poul Andersen (resistance member),"Adding local [[Wikipedia:Short description|short description]]: ""Danish printer"", overriding Wikidata description ""Danish printer who served in the Danish resistance movement during World War II"" ([[Wikipedia:Shortdesc helper|Shortdesc helper]])"
2008-10-16T21:42:50+00:00,245757520,245755951,0,Good Olfactory,Poul Andersen (resistance member),Reverted edits by [[Special:Contributions/Good Olfactory|Good Olfactory]] ([[User talk:Good Olfactory|talk]]) to last version by Eubot
2017-10-07T02:37:57+00:00,804150940,804150789,0,Edubucher,Puno,/* Gallery */
2011-01-19T10:51:30+00:00,408764338,408439796,0,Entropy1963,Puno,The article also in Greek Wikipedia
2009-08-18T02:25:10+00:00,308600910,308128896,0,170.170.59.133,Quantitative easing,fix link
2021-01-15T07:49:34+00:00,1000476231,1000315598,0,Molecular atrophy,Quantitative easing,/* Altering debt maturity structure */ Adding/removing wikilink(s)
2014-10-18T03:54:48+00:00,630063324,630049635,0,Lagrange613,Quantitative easing,Undid revision 630049635 by [[Special:Contributions/184.69.101.180|184.69.101.180]] ([[User talk:184.69.101.180|talk]]) - No basis for these additions in the cited sources.
2013-08-08T09:39:51+00:00,567655970,567352193,0,124.124.115.140,Quantitative easing,/* After 2007 */
2007-08-17T14:55:43+00:00,151834060,151603761,0,Mitsuhirato,Quantitative easing,
2022-08-21T08:38:23+00:00,1105687834,1104695775,0,Citation bot,Quantitative easing,Alter: title. | [[WP:UCB|Use this bot]]. [[WP:DBUG|Report bugs]]. | Suggested by BrownHairedGirl | #UCB_webform 3193/3831
2008-01-19T07:49:09+00:00,185383287,151834060,0,Joseph20202021,Quantitative easing,/* References */ Change the font size
2009-08-15T14:45:17+00:00,308128896,307590658,0,Oerjan,Quantitative easing,/* External links */ typo
2021-11-12T13:05:20+00:00,1054856177,1054856116,0,147.143.79.70,Quantitative easing,
2017-08-28T18:50:04+00:00,797707972,797526438,0,Yobot,Quantitative easing,"Removed invisible unicode characters + other fixes ([[User:Yobot/55|Task 55]]), replaced: →   (8) using [[Project:AWB|AWB]] (12151)"
2016-07-09T08:20:45+00:00,729020643,725019627,0,Lawrencekhoo,Quantitative easing,/* Money Printing or Monetary financing */
2014-07-28T17:45:20+00:00,618847454,618809809,0,Jonesey95,Quantitative easing,"Fixing empty citation, [[Category:Pages with citations using unnamed parameters|unnamed]] or [[Category:Pages with citations using unsupported parameters|unsupported]] parameter error using [[WP:AutoEd|AutoEd]]"
2015-01-09T05:51:22+00:00,641689033,641243499,0,Darx9url,Quantitative easing,/* top */ sticking to same word as rest of the lead
2018-09-28T22:34:16+00:00,861641868,861587736,0,45.19.196.75,Quantitative easing,Spaced added between period and first word.
2022-05-31T15:15:35+00:00,1090819486,1090451300,0,Juxlos,Quantitative easing,/* Precedents */
2019-02-01T15:32:19+00:00,881282596,878019483,0,Ted is talking,Quantitative easing,/* Effectiveness */
2010-03-29T20:44:54+00:00,352812647,352743459,0,84user,Quantitative easing,"remove extreme, see [[Talk:Quantitative easing#The ""Out of nothing"" point of view saturates this article]]; +cite for ""out of nothing""; move BBC cite to what it supports: no mention of multiplication"
2017-03-28T12:27:28+00:00,772629834,770259568,0,Shyamsunder,Quantitative easing,removed [[Category:Central banks]]; added [[Category:Operations of central banks]] using [[WP:HC|HotCat]]
2012-11-01T19:35:03+00:00,520941472,520932985,0,Bobrayner,Quantitative easing,still no source?
2011-09-25T11:36:42+00:00,452340930,452107483,0,ZéroBot,Quantitative easing,r2.7.1) (Robot: Adding [[ru:Количественное смягчение]]
2010-06-02T14:30:21+00:00,365645513,365644903,0,Lamro,Quantitative easing,links
2014-07-07T20:33:36+00:00,615995580,615995563,0,ClueBot NG,Quantitative easing,"Reverting possible vandalism by [[Special:Contributions/49.201.134.87|49.201.134.87]] to version by Lagrange613. False positive? [[User:ClueBot NG/FalsePositives|Report it]]. Thanks, [[User:ClueBot NG|ClueBot NG]]. (1895137) (Bot)"
2019-03-13T18:45:22+00:00,887610718,887610623,0,Reissgo,Quantitative easing,tidy
2013-02-26T16:40:52+00:00,540679820,529414920,0,Addbot,Ralph H. Fowler,"[[User:Addbot|Bot:]] Migrating 12 interwiki links, now provided by [[Wikipedia:Wikidata|Wikidata]] on [[d:q544338]] ([[User talk:Addbot|Report Errors]])"
2007-12-12T21:39:03+00:00,177516701,175016755,0,90.3.52.44,Ralph H. Fowler,+ (fr:)
2010-12-12T15:12:35+00:00,401963082,388348060,0,CactusBot,Replicas (album),"Bot: 1 external link(s) adapted for allmusic.com, 1 migrated to template usage, 1 tab(s) reconstructed"
2009-11-02T23:04:55+00:00,323567841,323566420,0,Ghmyrtle,Richard Williams (journalist),slight reordering
2009-05-03T16:04:08+00:00,287661132,287046853,0,Nem80,Replicas (album),+iw
2011-05-08T01:36:56+00:00,428009354,421955285,0,Mr.Z-bot,Richard Williams (journalist),updating tags: unreferenced [[WP:BLP|BLP]]
2007-03-18T20:41:07+00:00,116090077,116027824,0,209.244.31.49,Ringo Starr,/* Recent years */
2013-05-14T01:07:20+00:00,554979962,554812576,0,GabeMc,Ringo Starr,/* With the Beatles: 1962–1970 */ ce
2018-01-12T12:00:30+00:00,819986683,819986583,0,27.33.174.122,Rob Younger,Minor edit
2008-02-16T15:53:37+00:00,191866513,190164450,0,92.4.45.77,Rob Younger,"rv ""i know his son"""
2019-04-23T19:05:26+00:00,893815626,891220342,0,Certes,Rob Younger,Disambiguating links to [[Saint (disambiguation)]] (link changed to [[The Saints (Australian band)]]) using [[User:Qwertyytrewqqwerty/DisamAssist|DisamAssist]].
2009-10-25T04:34:52+00:00,321884061,321883729,0,BoNeZ,Ron Asheton,
2009-03-18T05:37:42+00:00,278045146,277996421,0,Buspar,Ron Paul,/* Post presidential campaign */
2018-08-22T17:06:13+00:00,856067810,856067570,0,9cfilorux,Ron Paul,/* Early congressional career (1976–1985) */ typo
2013-10-22T16:03:50+00:00,578277567,570302513,0,2601:4:1C80:44:146B:BAF:CA7D:2667,Ron Asheton,corrected middle name
2021-04-25T22:55:30+00:00,1019878666,1014947430,0,RoanokeVirginia,Royal Commission into the New South Wales Police Service,"Adding [[Wikipedia:Short description|short description]]: ""Investigation from 1995 to 1997 into corruption in the New South Wales Police"" ([[Wikipedia:Shortdesc helper|Shortdesc helper]])"
2016-05-26T15:59:29+00:00,722201189,722200081,0,Amccann421,Ron Paul,Reverted 1 edit by [[Special:Contributions/108.16.6.88|108.16.6.88]] ([[User talk:108.16.6.88|talk]]): Nothing in the article seems to deem him a conspiracy theorist. ([[WP:TW|TW]])
2011-12-08T11:36:34+00:00,464751747,464750716,0,Kjmonkey,Ron Paul,/* Personal life and medical career */ Clarified Rand is a federal government senator
2012-11-14T07:36:50+00:00,522959351,522944541,0,Paris1127,Royal Commission into the New South Wales Police Service,Reverted 1 edit by [[Special:Contributions/121.216.74.204|121.216.74.204]] ([[User talk:121.216.74.204|talk]]): No links to citations. ([[WP:TW|TW]])
2013-03-02T09:21:22+00:00,541686206,541378258,0,86.45.6.251,Rupert Sheldrake,/* Reception */
2009-11-29T21:00:40+00:00,328656702,316736148,0,Full-date unlinking bot,Seacon Square,"Unlinking full-dates. [[User:Full-date unlinking bot|Details here]]. Codes: AMreg(×1), BRreg(×1)"
2008-10-04T20:47:44+00:00,243029041,243028610,0,Jayen466,Rupert Sheldrake,[[WP:DASH]]
2014-05-08T08:05:50+00:00,607598190,601357233,0,Masssly,Seacon Square,clean up using [[Project:AWB|AWB]]
2019-09-19T12:02:23+00:00,916540704,901298357,0,Edgar181,Shaker (gene),(via [[WP:JWB]])
2016-04-15T18:54:50+00:00,715429359,609855655,0,168.170.199.30,Shaker (gene),/* Blockers */
2009-08-15T01:50:17+00:00,308051843,300173439,0,69.230.73.227,Small Faces,/* The Decca years */
2010-10-29T21:04:43+00:00,393676261,392895185,0,Hattiethecat1234,Small Faces,
2021-01-29T18:52:00+00:00,1003591962,1002252578,0,Helperzoom,Sophie Scholl – The Final Days,/* Plot */ Clarification
2007-05-24T18:15:24+00:00,133223580,132795937,0,Belovedfreak,Sophie Scholl – The Final Days,expandede infobox
2013-09-14T22:27:42+00:00,572943903,564118543,0,Kerry Raymond,"South Brisbane, Queensland",/* Heritage Buildings */ added William Jolly Bridge
2014-04-09T11:26:45+00:00,603434745,603373190,0,Crusoe8181,"South Brisbane, Queensland",
2016-12-13T05:06:14+00:00,754535484,741656806,0,Bender the Bot,Southbank Centre,clean up; http&rarr;https for [[The Guardian]] using [[Project:AWB|AWB]]
2018-05-15T11:08:00+00:00,841359919,837432762,0,88.151.155.34,Southbank Centre,
2008-03-24T17:02:28+00:00,200575173,200570402,0,StuffOfInterest,SpaceX Dragon,rv bad word use
2022-02-24T12:30:00+00:00,1073761037,1073727086,0,Andyjsmith,SpaceX Dragon,Reverted 2 edits by [[Special:Contributions/103.168.180.114|103.168.180.114]] ([[User talk:103.168.180.114|talk]]) to last revision by Joffan
2009-10-31T04:27:25+00:00,323049086,321177088,0,ShelfSkewed,"St Vincent's Hospital, Sydney",Disambiguate [[Sick]] to [[disease]]
2018-02-09T23:10:20+00:00,824858715,824858560,0,Joefromrandb,"St Vincent's Hospital, Sydney",/* Current hospital */ ce
2015-03-11T02:18:13+00:00,650848361,650295174,0,60.242.19.129,"St Vincent's Hospital, Sydney",Undid revision 650295174 by [[Special:Contributions/49.180.161.84|49.180.161.84]] ([[User talk:49.180.161.84|talk]])
2021-07-23T09:18:38+00:00,1035043452,1035042240,0,Cabrils,"St Vincent's Hospital, Sydney",/* In the media */ Expand and ref
2009-02-19T02:17:32+00:00,271724018,251311096,0,Dana boomer,Stephen Zarlenga,Stub sort
2010-12-19T01:59:06+00:00,403109824,401877374,0,DGG,Stephen Zarlenga,redirected to AMI
2022-02-06T21:59:12+00:00,1070323160,1065784002,0,Bbolker,Steve Keen,replace broken link with wayback machine link
2011-03-23T18:07:00+00:00,420354660,420352912,0,Cretog8,Steve Keen,"/* Financial instability and debt deflation */ remove-youtube not great source, anything he said there that can't be sourced elsewhere?"
2016-01-23T06:17:35+00:00,701221885,701215050,0,Volunteer Marek,Steve Keen,/* Critique of neoclassical theory of the firm */ I'm going to remove this (though Keen does make this claim) since that misrepresents both of these sources
2011-01-27T09:03:27+00:00,410336658,410336586,0,209.217.195.178,Steve Keen,/* Criticisms */
2020-08-23T08:56:10+00:00,974478653,973483416,0,77.202.76.54,Steve Keen,/* Critique of neoclassical theory of the firm */I corrected a lie.
2021-05-15T17:11:38+00:00,1023303864,1021687456,0,Swmmng,Subprime mortgage crisis,/* Background and timeline of events */ce hl
2009-09-10T06:52:58+00:00,312936892,312742548,0,Javidjamae,Subprime mortgage crisis,/* Government policies */
2012-05-11T16:12:46+00:00,492024983,490892188,0,Helpful Pixie Bot,Subprime mortgage crisis,ISBNs (Build KE)
2017-12-14T11:33:56+00:00,815365684,815365613,0,197.24.16.180,Subprime mortgage crisis,/* Homeowner speculation */
2019-03-11T14:30:41+00:00,887255669,886714776,0,78.26,Subprime mortgage crisis,Removing link(s): [[Wikipedia:Articles for deletion/Kenneth Clark (financial writer)]] closed as delete ([[WP:XFDC|XFDcloser]])
2019-09-09T14:03:23+00:00,914809642,914701998,0,Q8682,"Sunnybank Hills, Queensland",Undid revision 914701998 by [[Special:Contributions/58.84.77.7|58.84.77.7]] ([[User talk:58.84.77.7|talk]])  Statements only commercial or business in nature.
2019-08-03T16:58:40+00:00,909175238,909175019,0,The Mirror Cracked,Surfing,There isn't a country of origin parameter for that infobox
2022-09-06T06:11:32+00:00,1108777153,1105874607,0,CorrTimes,Surfing,
2018-03-08T19:25:46+00:00,829457109,541155184,0,Narky Blert,Susan George,SA
2016-02-13T11:00:07+00:00,704753055,688513227,0,KasparBot,Suzi Lovegrove,"migrating [[Wikipedia:Persondata|Persondata]] to Wikidata, [[toollabs:kasparbot/persondata/|please help]], see [[toollabs:kasparbot/persondata/challenge.php/article/Suzi Lovegrove|challenges for this article]]"
2012-10-12T12:55:16+00:00,517387297,513375027,0,Yobot,Steve Keen,"[[WP:CHECKWIKI]] error 61 fix, References after punctuation per [[WP:REFPUNC]] and [[WP:PAIC]] using [[Project:AWB|AWB]] (8459)"
2019-05-22T01:59:13+00:00,898202877,704753055,0,203.196.41.161,Suzi Lovegrove,
2007-05-31T02:41:55+00:00,134722717,134703931,0,Thortful,Sydney,Revert to revision 134473610 dated 2007-05-30 02:31:07 by Stephen using [[:en:Wikipedia:Tools/Navigation_popups|popups]]
2016-06-09T09:16:27+00:00,724447593,724327870,0,GreenC bot,Sydney,[[User:Green Cardamom/WaybackMedic|WaybackMedic]]
2006-04-21T03:19:26+00:00,49389725,47585436,0,Renamed user efB5zCgPvkrQ7C,Systemic risk,
2013-07-22T13:03:17+00:00,565327022,562437007,0,209.124.174.162,Systemic risk,"In the Diversification section, ""investigating conditions under which diversification may have ambiguous effects.""  The 2 ""f"" in the word ""effect"" weren't letters but some sort of math character."
2017-06-24T23:43:46+00:00,787363049,787362758,0,2A01:CB00:4C8:3800:90DF:47AD:70E5:B159,Systemic risk,
2018-03-09T21:17:33+00:00,829638219,826898027,0,Bender the Bot,Systemic risk,"/* Further reading */HTTP→HTTPS for [[NBER]], replaced: http://www.nber.org/chapters/ → https://www.nber.org/chapters/ using [[Project:AWB|AWB]]"
2011-05-26T18:25:37+00:00,431051733,424879449,0,82.36.112.157,Systemic risk,/* Explanation */ I agree with the sentiments of the text ive removed but this isnt the place for it
2012-03-30T12:02:17+00:00,484684804,484684750,0,85.9.94.164,Systemic risk,/* Factors */
2009-12-18T18:35:15+00:00,332531190,328995496,0,Alph Bot,Systemic risk,robot Modifying: [[pt:Risco sistêmico]]
2015-11-26T10:53:05+00:00,692532747,684474137,0,85.159.196.225,Systemic risk,
2012-08-30T21:36:48+00:00,510007125,504920398,0,Wkdtr,Systemic risk,
2013-04-29T01:15:09+00:00,552650675,552119589,0,Andrewaskew,Systemic risk,Removed hatnote for category. Alphabetised categories. [[Wikipedia:Overcategorization|Overcategorised]]?
2013-03-18T19:49:18+00:00,545261735,545261642,0,138.37.7.247,Systemic risk,/* Explanation */
2015-07-18T12:42:24+00:00,671987156,671822874,0,Trappist the monk,Systemic risk,/* Further reading */replace/remove deprecated cs1|2 parameters; using [[Project:AWB|AWB]]
2008-05-10T01:28:42+00:00,211379221,209189610,0,ChandlerMapBot,Systemic risk,robot  Adding: [[ko:체계적 위험]]
2020-06-20T20:12:12+00:00,963614368,958384464,0,OAbot,Systemic risk,[[Wikipedia:OABOT|Open access bot]]: doi added to citation with #oabot.
2011-12-24T20:31:28+00:00,467545188,466420823,0,ZéroBot,Systemic risk,r2.7.1) (Robot: Adding [[ru:Системный риск]]
2007-04-15T01:34:39+00:00,122885140,122883985,0,Discospinster,Systemic risk,Revert to revision 119284959 dated 2007-03-31 16:05:48 by Athaenara using [[:en:Wikipedia:Tools/Navigation_popups|popups]]
2018-07-21T19:21:38+00:00,851361133,848889768,0,KolbertBot,Systemic risk,Bot: [[User:KolbertBot|HTTP→HTTPS]] (v485)
2007-06-26T13:53:17+00:00,140740159,137530497,0,192.107.77.3,Systemic risk,small
2011-09-15T10:44:20+00:00,450621234,437843438,0,CitationCleanerBot,Systemic risk,"Various citation & identifier cleanup, plus AWB genfixes. Report problems and suggestions at [[User talk:CitationCleanerBot]]"
2013-07-01T19:19:26+00:00,562437007,562410614,0,Rjlabs,Systemic risk,Undid revision 562410614 by [[Special:Contributions/128.197.42.46|128.197.42.46]] ([[User talk:128.197.42.46|talk]]) See talk
2018-11-01T13:05:22+00:00,866770273,866740637,0,Diannaa,Systemic risk,remove copyright content copied from https://link.springer.com/article/10.1057/rm.2015.15
2009-05-19T11:14:04+00:00,290919734,290285829,0,114.77.114.40,Systemic risk,/* Measurement of Systemic Risk */
2007-07-15T17:28:15+00:00,144824270,144731400,0,SmackBot,Systemic risk,Date/fix the maintenance tags or gen fixes
2017-01-29T03:15:27+00:00,762484977,762484482,0,Loraof,Systemic risk,/* Diversification */ ce
2010-09-03T14:39:29+00:00,382678087,376659725,0,Esterfine,Systemic risk,
2010-06-01T19:26:12+00:00,365488668,365488599,0,Elockid,Systemic risk,{{pp-semi|small=yes}}
2018-10-31T07:47:55+00:00,866586710,866586629,0,Cranfieldthomas,Systemic risk,/* References */
2017-05-10T16:31:03+00:00,779724371,778308196,0,Going mobile,Systemic risk,Created section headers for TBTF and TICTF. Created link for TICTF.
2021-06-21T15:00:37+00:00,1029706380,1028010105,0,WikiCleanerBot,Systemic risk,v2.04b - [[User:WikiCleanerBot#T20|Bot T20 CW#61]] - Fix errors for [[WP:WCW|CW project]] (Reference before punctuation)
2014-04-14T15:27:26+00:00,604170507,602018877,0,Alevsarc,Systemic risk,/* See also */
2019-09-25T11:21:24+00:00,917766787,917554612,0,Tashdeed,Systemic risk,Added free to read link in citations with [[WP:OABOT|OAbot]] #oabot
2017-05-22T12:54:39+00:00,781645184,779724371,0,John of Reading,Systemic risk,"/* Criticisms of systemic risk measurements */Typo fixing, replaced: Critisisms → Criticisms, [[WP:AWB/T|typo(s) fixed]]: et. al → et al. using [[Project:AWB|AWB]]"
2022-09-17T07:40:32+00:00,1110745782,1110745259,0,38.15.56.188,Systemic risk,/* SRISK */Tidied up bad writing.
2013-10-04T13:16:36+00:00,575725236,574720505,0,Yobot,Systemic risk,Reference before punctuation and other fixes using [[Project:AWB|AWB]] (9510)
2009-03-29T01:35:52+00:00,280328650,279129075,0,Cenarium,Systemic risk,[[WP:UNDO|Undid]] revision 279038693 by [[Special:Contributions/128.59.154.168|128.59.154.168]] ([[User talk:128.59.154.168|talk]])
2009-11-08T22:27:03+00:00,324725288,324724543,0,130.126.235.1,Systemic risk,/* Diversification */
2007-11-28T06:02:18+00:00,174312544,174309850,0,Vivi spil,Systemic risk,
2015-01-18T02:26:01+00:00,642993196,642526183,0,Monkbot,Systemic risk,/* Structural models under financial interconnectedness */Task 2a: Fix [[Help:CS1_errors#deprecated_params|CS1 deprecated coauthor parameter errors]]
2009-01-03T06:20:27+00:00,261620569,261620105,0,Albertdavis3,Systemic risk,typo
2013-02-27T01:58:36+00:00,540807769,536754996,0,Addbot,Systemic risk,"[[User:Addbot|Bot:]] Migrating 9 interwiki links, now provided by [[Wikipedia:Wikidata|Wikidata]] on [[d:q1369234]] ([[User talk:Addbot|Report Errors]])"
2011-02-28T22:32:49+00:00,416453494,416255765,0,Good Olfactory,Systemic risk,"new key for [[Category:Systemic risk]]: ""*"" using [[WP:HC|HotCat]]"
2019-02-17T10:03:51+00:00,883745106,882091988,0,Citation bot,Systemic risk,Add: doi. Removed parameters. | You can [[WP:UCB|use this bot]] yourself. [[WP:DBUG|Report bugs here]]. | [[WP:UCB|User-activated]].
2010-05-30T11:20:38+00:00,365006241,364992391,0,Lawrencekhoo,Systemic risk,/* Explanation */ rm unreliable source
2015-10-06T21:05:06+00:00,684474137,684099578,0,Bgwhite,Systemic risk,Do [[Wikipedia:GENFIXES|general fixes]] and cleanup. - using [[Project:AWB|AWB]]
2009-09-28T05:30:12+00:00,316629669,314516599,0,Dicklyon,Systemic risk,Reverted to revision 304582414 by [[Special:Contributions/Dthomsen8|Dthomsen8]]; junk. ([[WP:TW|TW]])
2008-06-11T10:45:32+00:00,218599258,211379221,0,192.107.77.3,Systemic risk,specific term
2009-07-02T10:40:15+00:00,299863686,299233279,0,59.167.234.128,Systemic risk,[[WP:UNDO|Undid]] revision 299233279 by [[Special:Contributions/Anaskassem|Anaskassem]] ([[User talk:Anaskassem|talk]])  No reason for blanking
2009-06-09T02:26:35+00:00,295298782,290919734,0,Kwiki,Systemic risk,"/* Measurement of Systemic Risk */clean up, typos fixed: instituion → institution using [[Project:AutoWikiBrowser|AWB]]"
2009-07-28T00:22:27+00:00,304582414,304577835,0,Dthomsen8,Systemic risk,/* See also */ Added Moral hazard
2017-11-02T12:56:13+00:00,808366186,803376041,0,FrescoBot,Systemic risk,Bot: [[User:FrescoBot/Links|link syntax]] and minor changes
2021-12-17T09:10:13+00:00,1060730589,1052790413,0,Citation bot,Systemic risk,"Alter: template type. Add: date, journal, title, authors 1-1. Changed bare reference to CS1/2. Removed parameters. Some additions/deletions were parameter name changes. | [[WP:UCB|Use this bot]]. [[WP:DBUG|Report bugs]]. | Suggested by Abductive | [[Category:Financial markets]] | #UCB_Category 136/334"
2020-05-23T14:04:50+00:00,958384464,958384320,0,2402:1980:82A0:7A2A:4D5D:4546:91BC:67D6,Systemic risk,/* Project risks */
2008-10-18T13:16:13+00:00,246090114,245552328,0,Bender235,Systemic risk,"[[WP:AWB/T|Typo fixing]], typos fixed: insitutions → institutions  using [[Project:AutoWikiBrowser|AWB]]"
2020-12-31T06:23:07+00:00,997380883,996339891,0,OAbot,Systemic risk,[[Wikipedia:OABOT|Open access bot]]: doi added to citation with #oabot.
2009-06-29T02:36:13+00:00,299233279,295298782,0,Anaskassem,Systemic risk,/* Diversification */
2016-11-21T22:04:31+00:00,750798326,750714096,0,Tentinator,Systemic risk,Reverted to revision 741225428 by [[Special:Contributions/Bender the Bot|Bender the Bot]] ([[User talk:Bender the Bot|talk]]).
2016-04-11T10:30:06+00:00,714705241,702219412,0,Der Golem,Systemic risk,/* Structural models under financial interconnectedness */ mos
2020-09-13T08:23:15+00:00,978164697,963614368,0,Citation bot,Systemic risk,"Add: url, s2cid, issue. | You can [[WP:UCB|use this bot]] yourself. [[WP:DBUG|Report bugs here]]. | Suggested by SemperIocundus | via #UCB_webform"
2009-04-25T02:27:25+00:00,285973824,285973417,0,60.242.186.198,Systemic risk,It is really to do with a sudden clustering of collapses.  If it happened over decades it would be called restructuring...
2019-08-21T13:55:03+00:00,911839872,911839809,0,Mauls,Systemic risk,/* Explanation */
2018-12-09T09:37:49+00:00,872808426,871157130,0,Edward,Systemic risk,link [[securities lending]] using [[:en:User:Edward/Find link|Find link]]
2017-03-15T15:20:20+00:00,770458174,770458027,0,SineBot,Talk:2010 United States foreclosure crisis,"Signing comment by [[User:Kirschsubjudice|Kirschsubjudice]] - ""/* Primary Documents Available on National Mortgage Settlements Digital Archive */ new section"""
2019-02-15T08:43:59+00:00,883420496,770458174,0,GreenC bot,Talk:2010 United States foreclosure crisis,Add {{[[Template:reflist-talk|reflist-talk]]}} to [[Talk%3A2010%20United%20States%20foreclosure%20crisis#Article%20title|#Article title]] (via [[User:GreenC bot/Job 8|reftalk]] bot)
2010-10-21T21:38:59+00:00,392102566,392020005,0,CoolMike,Talk:2010 United States foreclosure crisis,/* Merge Foreclosuregate */
2012-10-29T00:44:53+00:00,520350155,520297969,0,Dthomsen8,Talk:2010 United States foreclosure crisis,
2009-07-16T19:31:22+00:00,302469857,292879650,0,173.19.154.89,Talk:Austrian business cycle theory,
2020-08-02T02:29:47+00:00,970738513,858434982,0,Wbm1058,Talk:Austrian business cycle theory,removing {{bots|deny=DPL bot}} – [[special:diff/532968930|has nothing to do with archiving]]
2013-01-18T03:17:39+00:00,533633305,533147998,0,Eb.hoop,Talk:Austrian business cycle theory,/* Quiggin */ I'd like to know which post-1945 textbooks featured the ABCT
2014-06-19T20:46:36+00:00,613605269,583000320,0,Srich32977,Talk:Austrian business cycle theory,swap sanctions tag
2018-09-07T04:47:53+00:00,858434982,858434439,0,Koavf,Talk:Austrian business cycle theory,{{WikiProject Austria}}
2008-11-17T10:44:50+00:00,252340924,252142610,0,Ron Paul...Ron Paul...,Talk:Austrian business cycle theory,Sorry.  I sometimes forget.  I'll keep signing off until I'm barred by the bullies again.  I already have a new name lined up.  This next one will be the best by far...
2018-01-07T22:30:26+00:00,819177964,613605269,0,Srich32977,Talk:Austrian business cycle theory,DS no longer applicable to this topic (Austrian Economics)
2007-11-24T03:50:15+00:00,173407389,160172224,0,76.224.69.130,Talk:Austrian business cycle theory,
2011-08-24T11:08:26+00:00,446470458,445845241,0,Lawrencekhoo,Talk:Austrian business cycle theory,/* Financial crisis of 2007–2010 */
2012-10-16T08:11:18+00:00,518081262,518059940,0,Lawrencekhoo,Talk:Austrian business cycle theory,/* This article reeks */
2011-09-20T00:52:32+00:00,451423541,449315188,0,Byelf2007,Talk:Austrian business cycle theory,/* Though disputed */
2010-12-06T05:18:39+00:00,400802852,400802802,0,BigK HeX,Talk:Austrian business cycle theory,"/* Sraffa, Kaldor & Hayek */ one more indent"
2007-03-02T21:17:31+00:00,112165308,112165174,0,DickClarkMises,Talk:Austrian business cycle theory,"/* Copyvio */ sp, fix ext. link"
2007-09-25T03:23:05+00:00,160172224,160114239,0,DickClarkMises,Talk:Austrian business cycle theory,moved [[Talk:Austrian Theory of the Business Cycle]] to [[Talk:Austrian Business Cycle Theory]]: Common usage as indicated in introductory sentence. Austrian School economists frequently refer to it as ABCT.
2013-11-23T21:00:25+00:00,583000320,581070391,0,Gabriel Yuji,Talk:Austrian business cycle theory,
2006-08-06T22:49:03+00:00,68083045,0,0,83.53.79.184,Talk:Austrian business cycle theory,
2012-05-04T02:52:22+00:00,490568526,490568412,0,Byelf2007,Talk:Austrian business cycle theory,/* Bias */
2021-07-05T00:53:23+00:00,1032005704,970738513,0,Vami IV,Talk:Austrian business cycle theory,Talk page header changes ([[User:Kephir/gadgets/rater|assisted]])
2010-08-26T21:14:02+00:00,381188662,381188139,0,Dabomb87,Talk:Austrian business cycle theory,"/* Edit request from 82.66.241.221, 26 August 2010 */ nd"
2011-11-19T20:38:54+00:00,461478233,461478020,0,SineBot,Talk:Austrian business cycle theory,"Signing comment by [[Special:Contributions/83.89.29.84|83.89.29.84]] - """""
2011-05-10T08:28:11+00:00,428389377,428389279,0,SineBot,Talk:Austrian business cycle theory,"Signing comment by [[Special:Contributions/216.26.110.234|216.26.110.234]] - ""/* Hayekian Triangles */ new section"""
2009-01-03T07:48:05+00:00,261631601,261631469,0,SineBot,Talk:Austrian business cycle theory,"Signing comment by [[User:VulgarKeynesianMilitarism|VulgarKeynesianMilitarism]] - ""/* Good job! */  Restored another censored section which was deleted without reason."""
2009-05-28T13:59:01+00:00,292879650,291592942,0,Pestergaines,Talk:Austrian business cycle theory,Note on my recent edit on Rothbard's opinions.
2010-06-18T16:36:19+00:00,368821925,368761621,0,Satori Son,Talk:Austrian business cycle theory,"Protected Talk:Austrian business cycle theory: Excessive [[WP:SOCK|sock puppetry]]: [[:Category:Wikipedia sockpuppets of Karmaisking]] ([edit=autoconfirmed] (expires 16:36, 18 July 2010 (UTC)) [move=autoconfirmed] (expires 16:36, 18 July 2010 (UTC)))"
2008-11-14T06:00:15+00:00,251719846,251719348,0,Ron Paul...Ron Paul...,Talk:Austrian business cycle theory,/* ABCT Is Incorrect */
2012-09-06T01:47:42+00:00,511005605,511004929,0,Cengime,Talk:Austrian business cycle theory,/* A few possible avenues of improvement */ Correction
2010-02-25T13:22:20+00:00,346288016,346263899,0,BigK HeX,Talk:Austrian business cycle theory,/* Mill quote */
2013-11-10T18:19:08+00:00,581070391,579056524,0,Cengime,Talk:Austrian business cycle theory,Added to WikiProject Alternative Views
2011-06-07T02:54:43+00:00,432963596,428389377,0,Lawrencekhoo,Talk:Austrian business cycle theory,Undid revision 428103006 by [[Special:Contributions/Wikipedianamepolicysucks|Wikipedianamepolicysucks]] ([[User talk:Wikipedianamepolicysucks|talk]]) rv sock
2011-01-25T08:44:33+00:00,409933102,409933078,0,Terra Novus,Talk:Austrian business cycle theory,Assessed
2007-12-22T06:10:43+00:00,179543724,179543011,0,LoweLeif,Talk:Austrian school of economics,/* Criticism? */
2008-01-15T21:57:30+00:00,184577932,184197172,0,Kim Bruning,Talk:Austrian school of economics,/* Discuss your edits */ Follow consensus process please :-)
2007-04-22T01:54:58+00:00,124762095,123264306,0,132.239.55.191,Talk:Austrian school of economics,/* Maintaining line of thought since the 15th century */
2014-04-10T14:14:31+00:00,603599375,601972763,0,Colonycat,Talk:Austrian school of economics,/* Business cycles --> Fractional reserve banks not banks */ new section
2013-11-04T19:17:14+00:00,580196403,580192661,0,Srich32977,Talk:Austrian school of economics,[[WP:TPL]] puts the sanctions template higher up
2011-03-31T07:10:54+00:00,421611709,421611658,0,Srich32977,Talk:Austrian school of economics,/* WP:OVERLINK reversion */ typo
2010-11-15T21:39:35+00:00,396982160,396861020,0,Dark Charles,Talk:Austrian school of economics,/* Krugman's claim about increased spending */
2018-11-02T00:53:05+00:00,866860288,866860224,0,76.184.220.115,Talk:Austrian school of economics,/* Just Libertarians in the Closet? */
2008-02-22T08:18:02+00:00,193230032,193230028,0,Gary,Talk:Austrian school of economics,cleanup
2019-04-23T02:06:32+00:00,893705061,866860288,0,160.39.235.254,Talk:Austrian school of economics,/* Just Libertarians in the Closet? */
2016-06-24T00:01:04+00:00,726726822,726653997,0,Lowercase sigmabot III,Talk:Austrian school of economics,Archiving 2 discussion(s) to [[Talk:Austrian School/Archive 12]]) (bot
2009-02-20T03:56:57+00:00,271994739,271994506,0,SineBot,Talk:Austrian school of economics,"Signing comment by [[Special:Contributions/157.100.171.102|157.100.171.102]] - """""
2022-01-18T10:21:51+00:00,1066434701,1037338191,0,Gonnym,Talk:Austrian school of economics,/* top */Remove template
2006-08-10T17:54:22+00:00,68854975,67861910,0,68.5.113.238,Talk:Austrian school of economics,
2007-03-17T07:52:33+00:00,115746683,115746679,0,HagermanBot,Talk:Austrian school of economics,"[[User:ArmyOfFluoride|ArmyOfFluoride]] didn't sign: ""Criticism?"""
2018-02-13T02:00:38+00:00,825379821,825379731,0,Jtgw1981,Talk:Austrian school of economics,/* Reisman as Hayekian */
2008-05-04T16:10:04+00:00,210124763,208758576,0,213.37.192.62,Talk:Austrian school of economics,important people not really that important
2009-07-23T08:13:00+00:00,303696331,303695925,0,Michael.suede,Talk:Austrian school of economics,/* Marginalization of Austrian Economics */
2012-01-14T20:38:09+00:00,471380574,471328218,0,The Four Deuces,Talk:Austrian school of economics,/* Not up to Wikipedia Standards */
2014-06-19T20:33:45+00:00,613603875,613109439,0,Srich32977,Talk:Austrian school of economics,Fixing style/layout errors
2018-05-29T06:15:50+00:00,843445699,843445619,0,SineBot,Talk:Austrian school of economics,"Signing comment by [[User:GRosado|GRosado]] - """""
2022-06-13T14:24:50+00:00,1092931979,1092927890,0,Bonewah,Talk:Austrian school of economics,Restored revision 1066434701 by [[Special:Contributions/Gonnym|Gonnym]] ([[User talk:Gonnym|talk]]): Unhelpful talk page message
2012-05-02T16:59:12+00:00,490322842,490322746,0,The Four Deuces,Talk:Austrian school of economics,/* ABCT and the GFC: Confessions of a Mainstream Economist by Jerry Tempelman */
2006-11-29T01:51:49+00:00,90806452,90609966,0,RayBirks,Talk:Austrian school of economics,re-locate comment per date inserted (previously unsigned)
2008-12-18T19:27:50+00:00,258828693,258828502,0,DickClarkMises,Talk:Austrian school of economics,/* What should be in the lead? */ revise
2011-06-08T20:10:25+00:00,433266126,433239021,0,Bility,Talk:Austrian school of economics,"/* Edit request from Pedroj012, 8 June 2011 */ edit request completed"
2015-10-25T06:34:54+00:00,687383423,687336885,0,Darx9url,Talk:Austrian school of economics,/* Criticism section violates wikipedia's neutral point of view policy */
2012-02-17T15:34:48+00:00,477379037,477376526,0,Lawrencekhoo,Talk:Austrian school of economics,/* Kirzner lecturing on Austrian economics */
2020-03-12T07:11:58+00:00,945171669,893705061,0,MJL,Talk:Austrian school of economics,merge banners
2017-12-03T00:01:16+00:00,813304740,813156413,0,Lowercase sigmabot III,Talk:Austrian school of economics,Archiving 2 discussion(s) to [[Talk:Austrian School/Archive 12]]) (bot
2013-05-10T15:46:12+00:00,554459113,554359644,0,ChrisGualtieri,Talk:Austrian school of economics,General Talk Page Fixes using [[Project:AWB|AWB]]
2007-02-25T23:24:40+00:00,110940069,110903193,0,DavidCBryant,Talk:Austrian school of economics,/* What does this mean? */ It means the whole paragraph needs to be rewritten.
2006-11-28T06:17:37+00:00,90609966,90609742,0,RayBirks,Talk:Austrian school of economics,add unsigned tags
2015-04-22T02:45:40+00:00,658069107,657911091,0,Darkstar1st,Talk:Austrian school of economics,/* Krugman */ rm critic per weight
2007-05-31T13:10:34+00:00,134802259,127375255,0,86.20.238.80,Talk:Austrian school of economics,/* David D. Friedman */
2017-01-08T02:34:59+00:00,758883487,758774472,0,Lawrencekhoo,Talk:Austrian school of economics,/* First Paragraph Terrible */
2020-07-01T00:00:57+00:00,965377556,965230192,0,Lowercase sigmabot III,Talk:Austrian school of economics,Archiving 2 discussion(s) to [[Talk:Austrian School/Archive 12]]) (bot
2007-09-02T15:14:14+00:00,155223671,155223487,0,SineBot,Talk:Austrian school of economics,Automatically signing comment made by [[User:Morgan gibson87|Morgan gibson87]]
2014-03-30T16:01:09+00:00,601972763,601966004,0,SPECIFICO,Talk:Austrian school of economics,/* Philosophy */
2013-03-05T11:22:41+00:00,542191692,542165153,0,Darkstar1st,Talk:Austrian school of economics,/* Responses */
2007-02-13T00:26:29+00:00,107699119,107693314,0,DavidCBryant,Talk:Austrian school of economics,"/* Milton Friedman */ Fixed a broken link in a comment -- ""|"" had been omitted -- and added a comment of my own."
2020-05-20T18:38:35+00:00,957823267,956385022,0,Philoserf,Talk:Austrian school of economics,"Assessment (B): banner shell, Austria (Low) ([[WP:RATER#2.5.1|Rater]])"
2010-11-04T01:53:59+00:00,394705752,390666242,0,MiszaBot I,Talk:Austrian school of economics,Archiving 2 thread(s) (older than 120d) to [[Talk:Austrian School/Archive 3]].
2012-08-19T00:28:57+00:00,508057637,507549467,0,MeUser42,Talk:Austrian school of economics,"/* ""Opposition to fractional banking is only when it is not explicitly contractual"" */"
2020-12-06T05:25:29+00:00,992610940,965377556,0,Community Tech bot,Talk:Austrian school of economics,Files used on this page or its Wikidata item are up for deletion
2009-06-25T14:39:54+00:00,298566747,297349670,0,Charles Edward,Talk:Austrian school of economics,{{WPLibertarianism|class=B|importance=miw}}
2015-01-23T15:15:45+00:00,643828150,643534197,0,Frietjes,Talk:Austrian school of economics,Undid revision 631942683 by [[Special:Contributions/Frietjes|Frietjes]] ([[User talk:Frietjes|talk]])
2008-10-04T08:48:47+00:00,242925698,239502622,0,Pawyilee,Talk:Austrian school of economics,"/* History section */ Theories could be testable using RFIDs, and the systems theory of urban archaeology"
2009-09-22T10:19:08+00:00,315477231,311578092,0,MSGJ,Talk:Austrian school of economics,wpbs
2008-09-14T22:31:00+00:00,238454341,238073022,0,Gary,Talk:Austrian school of economics,assessing
2010-05-12T01:38:39+00:00,361594340,360828280,0,MiszaBot I,Talk:Austrian school of economics,Archiving 2 thread(s) (older than 120d) to [[Talk:Austrian School/Archive 1]].
2009-03-23T11:33:19+00:00,279129034,278983263,0,John Quiggin,Talk:Austrian school of economics,/* Heterodox but exaggerated */
2006-06-21T05:39:51+00:00,59761667,59682027,0,Will Beback,Talk:Austrian school of economics,"/* Issue with ""Vienna school"" redirect to this page */ amny schools"
2013-03-11T00:54:35+00:00,543314948,542916471,0,MiszaBot I,Talk:Austrian school of economics,"Robot: Archiving 2 threads (older than 30d) to [[Talk:Austrian School/Archive 6]], [[Talk:Austrian School/Archive 7]]."
2018-10-15T10:23:29+00:00,864139318,858435012,0,FRadical Bot,Talk:Austrian school of economics,"/* top */replaced all instances of MiszaBot, MiszaBot I,MiszaBot II, MiszaBot III with Lowercase sigmabot III in {{Auto archiving notice}}"
2010-06-03T15:53:33+00:00,365850190,365848407,0,BigK HeX,Talk:Austrian school of economics,/* Krugman's claim about increased spending */ depends on the material....
2011-11-21T20:24:46+00:00,461821808,461821288,0,Byelf2007,Talk:Austrian school of economics,/* On the Mises Institute */
2012-01-13T17:27:04+00:00,471173639,471167528,0,The Four Deuces,Talk:Austrian school of economics,/* Not up to Wikipedia Standards */
2007-08-02T05:09:53+00:00,148654096,148648914,0,Operation Spooner,Talk:Austrian school of economics,"/* Heterodox status, cardinal utilities */"
2006-11-15T06:02:31+00:00,87931864,87878385,0,Carbonate,Talk:Austrian school of economics,"/* Issue with ""Vienna school"" redirect to this page */"
2014-08-18T15:03:48+00:00,621780452,621762446,0,Srich32977,Talk:Austrian school of economics,Reverted edits by [[Special:Contribs/83.85.146.44|83.85.146.44]] ([[User talk:83.85.146.44|talk]]) to last version by Srich32977
2008-07-15T20:53:21+00:00,225879940,210124763,0,Mark Borgschulte,Talk:Austrian school of economics,
2011-10-25T13:21:28+00:00,457313420,457311877,0,Beagel,Talk:Austrian school of economics,rv blocked user trolling
2012-01-23T07:58:44+00:00,472765086,471380574,0,Byelf2007,Talk:Austrian school of economics,vandalism; jesus fucking christ who did this?
2018-09-07T04:48:18+00:00,858435012,843445699,0,Koavf,Talk:Austrian school of economics,{{WikiProject Austria}}
2021-08-05T23:25:49+00:00,1037338191,992610940,0,PearBOT II,Talk:Austrian school of economics,Merge Talk header and Auto archiving notice per [[Wikipedia:Templates_for_discussion/Log/2021_May_13#Template:Auto_archiving_notice|TfD]]
2007-01-30T22:59:14+00:00,104439229,97914225,0,DavidCBryant,Talk:Austrian school of economics,Luis de Molina
2013-03-22T19:11:42+00:00,546359706,546348039,0,SPECIFICO,Talk:Austrian school of economics,Strikethrough sock of banned user.
2007-05-01T09:00:48+00:00,127375255,127354317,0,Skomorokh,Talk:Austrian school of economics,Friedman is a neoclassical economist
2009-04-02T14:37:20+00:00,281296224,281296024,0,SineBot,Talk:Austrian school of economics,"Signing comment by [[Special:Contributions/207.170.244.174|207.170.244.174]] - ""/* Hayek and ""Major role"" of Austrian ec */"""
2017-08-11T18:51:55+00:00,795057886,794975854,0,North8000,Talk:Austrian school of economics,/* Prussian Historical School? */ fix indent to avoid confusion.  Please revert me if not OK
2012-05-06T02:24:01+00:00,490911279,490568926,0,MiszaBot I,Talk:Austrian school of economics,"Archiving 2 thread(s) (older than 30d) to [[Talk:Austrian School/Archive 6]], [[Talk:Austrian School/Archive 7]]."
2011-12-31T17:44:47+00:00,468801463,465564578,0,Id4abel,Talk:Austrian school of economics,updated assessment
2006-08-05T18:41:30+00:00,67861910,67861741,0,83.53.79.184,Talk:Austrian school of economics,"/* Issue with ""Vienna school"" redirect to this page */"
2014-12-01T00:00:33+00:00,636094720,636085366,0,Lowercase sigmabot III,Talk:Austrian school of economics,Archiving 2 discussion(s) to [[Talk:Austrian School/Archive 12]]) (bot
2010-06-12T01:38:15+00:00,367530203,365850190,0,MiszaBot I,Talk:Austrian school of economics,Archiving 2 thread(s) (older than 120d) to [[Talk:Austrian School/Archive 2]].
2007-11-28T17:22:39+00:00,174405635,170420626,0,DerRichter,Talk:Austrian school of economics,Politicians
2010-08-02T10:44:44+00:00,376737078,376736941,0,N6n,Talk:Austrian school of economics,"/* The first use of ""Austrian"" */ typo"
2009-11-30T23:59:43+00:00,328915285,328915193,0,BigK HeX,Talk:Austrian school of economics,/* Utility Gibberish */
2009-06-19T12:29:14+00:00,297349670,297348284,0,Gwen Gale,Talk:Austrian school of economics,/* Reinstating edits of banned user */ forgot to say
2013-01-10T03:35:08+00:00,532304360,531707914,0,RFC bot,Talk:Austrian school of economics,Removing expired RFC template.
2010-12-17T09:01:29+00:00,402834645,401710664,0,RedXIV,Talk:Austrian school of economics,/* Krugman's claim about increased spending */
2009-11-08T07:09:53+00:00,324604813,324591025,0,SlamDiego,Talk:Austrian school of economics,/* Criticisms section */
2010-12-03T23:15:05+00:00,400393755,399842063,0,TrialUndErratum,Talk:Austrian school of economics,/* heterodoxy */ new section
2013-08-08T07:51:53+00:00,567648241,564724526,0,Lawrencekhoo,Talk:Austrian school of economics,set priority per guideline [[WikiProject Economics/Assessment]]
2014-04-23T00:57:48+00:00,605380086,605377795,0,Srich32977,Talk:Austrian school of economics,/* Business cycles --> Fractional reserve banks not banks */ add date to comment so that autoarchiving can work post 30 days
2011-09-09T03:52:51+00:00,449267519,449244226,0,BigK HeX,Talk:Austrian school of economics,/* Final sentence of introduction - unable to edit since protected */ reply
2009-01-14T15:51:14+00:00,264051213,264040466,0,Childhoodsend,Talk:Austrian school of economics,"/* ""the role of the state"" */  central banking vs bank nationalizations"
2010-02-15T08:55:40+00:00,344176645,344176304,0,BigK HeX,Talk:Austrian school of economics,/* SlamDiego and McCulloch ... third time's a charm? */
2014-09-30T02:14:44+00:00,627625813,627614392,0,Netoholic,Talk:Austrian school of economics,/* Arbcom Enforcement */  rmv section. canvassing. not relevant to article improvement
2010-08-23T15:43:02+00:00,380517778,380516221,0,Koavf,Talk:Austrian school of economics,fix
2011-12-13T02:17:10+00:00,465564578,464322881,0,MiszaBot I,Talk:Austrian school of economics,Archiving 2 thread(s) (older than 30d) to [[Talk:Austrian School/Archive 6]].
2011-09-01T09:34:44+00:00,447828371,447682514,0,Misessus,Talk:Austrian school of economics,"/* Paragraph 2, Shenoy, mises.org etc, fringe */"
2012-02-27T00:49:39+00:00,479043469,478937409,0,Byelf2007,Talk:Austrian school of economics,
2010-06-18T01:38:01+00:00,368708880,367530203,0,MiszaBot I,Talk:Austrian school of economics,Archiving 3 thread(s) (older than 120d) to [[Talk:Austrian School/Archive 2]].
2009-09-03T01:24:35+00:00,311578092,310641466,0,MiszaBot I,Talk:Austrian school of economics,Archiving 2 thread(s) (older than 120d) to [[Talk:Austrian School/Archive 1]].
2011-02-07T01:55:59+00:00,412456814,412456713,0,BigK HeX,Talk:Austrian school of economics,/* Criticism of mainstream */ ce
2007-01-02T09:44:40+00:00,97914225,97820597,0,MSTCrow,Talk:Austrian school of economics,/* Keynes Theory and Its Results */
2010-10-14T09:34:59+00:00,390666242,389566253,0,Magioladitis,Talk:Austrian school of economics,"archives, replaced: talkheader → Talk header, {{archive box|auto=yes}} → {{Archives|auto=yes}} using [[Project:AWB|AWB]]"
2009-02-05T10:03:08+00:00,268662205,268661288,0,Lawrencekhoo,Talk:Austrian school of economics,/* Citations in Lede? */
2016-09-30T03:04:18+00:00,741859228,726726822,0,Lawrencekhoo,Talk:Austrian school of economics,/* top */
2006-10-22T03:22:58+00:00,82936808,80707455,0,72.38.152.87,Talk:Austrian school of economics,/* vagueness in contribution section */
2006-06-20T20:09:06+00:00,59682027,50983762,0,Skookum1,Talk:Austrian school of economics,"Issue with ""Vienna school"" redirect to this page"
2009-02-11T10:59:29+00:00,269979025,269785877,0,Lawrencekhoo,Talk:Austrian school of economics,/* Vernon Smith and James Buchanan */
2009-08-04T12:05:00+00:00,305999202,305425716,0,Willy turner,Talk:Austrian school of economics,
2009-08-09T10:00:49+00:00,306951263,306949347,0,Gwen Gale,Talk:Austrian school of economics,/* Greenspan's shocked disbelief */ ok
2012-10-16T18:15:20+00:00,518161648,518141456,0,SPECIFICO,Talk:Austrian school of economics,
2012-06-14T20:39:20+00:00,497608519,497606489,0,Byelf2007,Talk:Austrian school of economics,/* A note about the criticisms */
2010-05-08T01:37:31+00:00,360828280,357911469,0,MiszaBot I,Talk:Austrian school of economics,Archiving 2 thread(s) (older than 120d) to [[Talk:Austrian School/Archive 1]].
2008-12-30T21:15:18+00:00,260954640,260954399,0,Nurax,Talk:Austrian school of economics,/* Schumpeter and Heyak */
2011-10-07T08:59:23+00:00,454360096,454200049,0,Lawrencekhoo,Talk:Austrian school of economics,/* Blaug and macro */
2007-02-24T21:39:35+00:00,110669440,110669419,0,HagermanBot,Talk:Austrian school of economics,"[[Special:Contributions/68.40.170.168|68.40.170.168]] didn't sign: ""/* Milton Friedman */ """
2009-07-25T05:35:00+00:00,304073612,284973702,0,AnomieBOT,Talk:Bank run,"Replacing {{WikiProjectBanners}}: merge numbered parameters, remove obsolete 'nested', and change to WPBS (2 banners) per [[User:AnomieBOT/req/Template:WPBS|consensus]]"
2007-02-09T23:11:10+00:00,106953097,0,0,84.66.227.95,Talk:Bank run,[[WP:AES|←]]Created page with 'I think this happened recently in Argantina.'
2010-07-10T09:50:45+00:00,372721402,354604219,0,Yobot,Talk:Bank run,clean up using [[Project:AWB|AWB]] (6823)
2020-08-07T00:55:45+00:00,971580638,944904865,0,Karthanitesh,Talk:Bank run,Updated template for WikiProject Economics
2013-11-04T15:22:55+00:00,580165527,546282732,0,Lowercase sigmabot III,Talk:Bank run,Archiving 1 discussion(s) to [[Talk:Bank run/Archive 1]]) (bot
2010-10-12T11:47:34+00:00,390262845,358559205,0,SmackBot,Talk:Credit crunch,Subst: {{unsigned}}  (& regularise templates)
2009-05-14T14:36:47+00:00,289887158,289868571,0,Lawrencekhoo,Talk:Credit crunch,"[[WP:RBK|Reverted]] edits by [[Special:Contributions/Lizzy""KeenEye""Coleman|Lizzy""KeenEye""Coleman]] ([[User talk:Lizzy""KeenEye""Coleman|talk]]) to last version by Ckatz"
2010-04-27T02:43:50+00:00,358559205,339980540,0,GreenGooIsaGreatActor,Talk:Credit crunch,Undid revision 339980540 by [[Special:Contributions/86.144.98.40|86.144.98.40]] ([[User talk:86.144.98.40|talk]])
2008-10-05T09:50:28+00:00,243142180,243142015,0,Gregalton,Talk:Credit crunch,move to archive
2009-02-23T03:56:34+00:00,272647490,272647315,0,NJGW,Talk:Credit crunch,/* Vandalism */
2008-08-17T07:53:19+00:00,232455616,232433111,0,Flowanda,Talk:Credit crunch,[[WP:UNDO|Undid]] revision 232433111 by [[Special:Contributions/BuddhaLives|BuddhaLives]] ([[User talk:BuddhaLives|talk]])Please do not alter other editor's talk page edits
2009-01-26T19:29:35+00:00,266583758,266581682,0,NJGW,Talk:Credit crunch,Reverted 1 edit by [[Special:Contributions/84.13.21.79|84.13.21.79]] identified as [[WP:VAND|vandalism]] to last revision by [[User:NJGW|NJGW]]. ([[WP:TW|TW]])
2008-05-01T16:37:49+00:00,209486826,209486612,0,SineBot,Talk:Credit crunch,"Signing comment by [[User:NKDurrani|NKDurrani]] - ""/* The links */"""
2008-10-28T17:25:31+00:00,248229420,247887599,0,Leevanjackson,Talk:Credit crunch,/* Crunch versus sqeeze again. Time to merge yet? */  support
2008-03-17T22:08:41+00:00,198960121,192992036,0,Splash,Talk:Credit crunch,/* Is this original research? */ new section
2010-01-25T19:37:30+00:00,339980540,289887158,0,86.144.98.40,Talk:Credit crunch,
2008-11-26T11:01:11+00:00,254205431,252621925,0,John Quiggin,Talk:Credit crunch,/* Crunch versus sqeeze again. Time to merge yet? */
2009-04-02T07:12:51+00:00,281246083,252693324,0,RussBot,Talk:Credit squeeze,Robot: fixing misdirected talk page redirect
2008-11-18T16:35:07+00:00,252592822,252592426,0,Aervanath,Talk:Credit tightening,"moved [[Talk:Credit contraction]] to [[Talk:Credit tightening]]:&#32;listed at [[WP:RM]] for five days, no objections to move"
2021-08-11T09:49:24+00:00,1038237246,252592822,0,MalnadachBot,Talk:Credit tightening,Fixed [[WP:LINT|Lint errors]] in signatures. ([[User:MalnadachBot/Task 2|Task 2]])
2013-02-01T20:49:32+00:00,536080691,515281401,0,99.31.116.10,Talk:Criticism of fractional-reserve banking,Internal link to archive 1
2010-05-28T17:27:32+00:00,364698517,362554833,0,174.4.3.121,Talk:Criticism of fractional-reserve banking,/* Money / credit contractions */
2019-11-09T13:46:57+00:00,925341618,925341116,0,Sawol,Talk:Criticism of fractional-reserve banking,-{{User:MiszaBot/config}}
2008-10-10T18:16:17+00:00,244415966,244393028,0,MastCell,Talk:Criticism of fractional-reserve banking,"Per [[WP:TPG]] and [[WP:NPA]]. Comment on content, not the contributor. If there's a problem with a specific editor, [[WP:DR|dispute resolution]] is thataway."
2008-07-02T01:00:50+00:00,222982267,222045468,0,MiszaBot I,Talk:Criticism of fractional-reserve banking,Archiving 3 thread(s) (older than 140d) to [[Talk:Criticism of fractional-reserve banking/Archive 1]].
2010-11-03T03:46:53+00:00,394517873,394482108,0,MiszaBot I,Talk:Criticism of fractional-reserve banking,Archiving 2 thread(s) (older than 90d) to [[Talk:Criticism of fractional-reserve banking/Archive 2]].
2008-09-06T22:57:06+00:00,236744579,235980815,0,Satori Son,Talk:Criticism of fractional-reserve banking,Reverted edits by [[Special:Contributions/LetThemMintPaper|LetThemMintPaper]] ([[User talk:LetThemMintPaper|talk]]) to last version by Gregalton
2022-03-27T04:48:09+00:00,1079507160,925341618,0,MalnadachBot,Talk:Criticism of fractional-reserve banking,Fixed [[WP:LINT|Lint errors]]. ([[User:MalnadachBot/Task 12|Task 12]])
2008-11-20T07:04:31+00:00,252944571,252891171,0,John Quiggin,Talk:Criticism of fractional-reserve banking,rvt sockpuppet edits
2010-02-28T10:58:09+00:00,346859431,346859355,0,122.105.47.200,Talk:Criticism of fractional-reserve banking,
2008-03-28T15:57:48+00:00,201598784,201598454,0,Jamalloyman,Talk:Criticism of fractional-reserve banking,/* Friedman et al claims */
2009-03-03T10:38:27+00:00,274657454,274657427,0,Cameron Scott,Talk:Criticism of fractional-reserve banking,/* Neutrality and Content */
2007-05-28T10:57:52+00:00,134052708,115703602,0,Gavin.collins,Talk:Criticism of fractional-reserve banking,Business & Economics Assessment
2011-12-23T19:13:44+00:00,467380658,459285607,0,Diza,Talk:Criticism of fractional-reserve banking,/* Loaded terms. */
2008-03-16T16:01:55+00:00,198648375,198644534,0,EGeek,Talk:Criticism of fractional-reserve banking,/* Why so many deletions? */
2010-12-24T10:20:32+00:00,404009084,404005535,0,114.78.7.228,Talk:Criticism of fractional-reserve banking,/* Attempted to de-bias this page */
2012-09-30T09:53:50+00:00,515281401,515281131,0,Reissgo,Talk:Criticism of fractional-reserve banking,/* fractionalreserves.com */
2010-11-07T22:13:51+00:00,395428771,395398930,0,Fresheneesz,Talk:Criticism of fractional-reserve banking,/* Attempted to de-bias this page */
2008-09-17T09:33:33+00:00,238989503,238983341,0,165.228.245.66,Talk:Criticism of fractional-reserve banking,/* Proposed claim addition */
2012-06-26T13:37:38+00:00,499443666,499441926,0,Bobrayner,Talk:Criticism of fractional-reserve banking,removed rant
2008-08-18T03:56:43+00:00,232615044,232612278,0,Gregalton,Talk:Criticism of fractional-reserve banking,Remove more pontificating by banned user
2009-10-07T23:00:24+00:00,318552837,318552733,0,24.71.233.179,Talk:Criticism of fractional-reserve banking,"/* Why is the quantifier ""some"" in this article almost 30 times? */"
2011-04-04T18:09:46+00:00,422355340,421729317,0,Bility,Talk:Criticism of fractional-reserve banking,"/* Edit request from 71.112.248.253, 31 March 2011 */ updating edit request template syntax"
2010-06-23T00:45:11+00:00,369648946,369648535,0,BigK HeX,Talk:Criticism of fractional-reserve banking,
2012-03-21T23:19:12+00:00,483258827,483029469,0,Bobrayner,Talk:Criticism of fractional-reserve banking,/* Unsupported statement/Blog linked is not a RS */ reply
2007-03-17T02:30:43+00:00,115703602,113968081,0,Searchme,Talk:Criticism of fractional-reserve banking,cut numismaticnotice
2009-12-19T16:28:24+00:00,332691941,332691722,0,BigK HeX,Talk:Criticism of fractional-reserve banking,/* References to Ellen Hodgson Brown don't need to be obliterated */
2011-11-06T13:08:01+00:00,459285607,459285476,0,SineBot,Talk:Criticism of fractional-reserve banking,"Signing comment by [[Special:Contributions/209.210.228.204|209.210.228.204]] - ""/* Loaded terms. */ new section"""
2008-01-24T05:12:12+00:00,186521894,183645645,0,Zenwhat,Talk:Criticism of fractional-reserve banking,"moved [[Talk:Criticisms of fractional-reserve banking]] to [[Talk:Criticism of fractional-reserve banking]]: Moving to singular ""criticism"" in accordance with Wikipedia's naming conventions"
2008-01-11T15:59:57+00:00,183645645,183505883,0,Gregalton,Talk:Criticism of fractional-reserve banking,/* Cites for Conventional Economic Analysis */
2010-06-08T11:03:38+00:00,366765993,366761045,0,Lawrencekhoo,Talk:Criticism of fractional-reserve banking,Reverted to revision 364698517 by [[Special:Contributions/174.4.3.121|174.4.3.121]]; rv sock of banned user. ([[WP:TW|TW]])
2009-01-01T06:07:47+00:00,261225485,261027778,0,203.206.178.15,Talk:Criticism of fractional-reserve banking,"/* LOL */  Sorry, had to delete completely pointless comment."
2009-05-24T09:52:14+00:00,291983806,291971461,0,Lawrencekhoo,Talk:Criticism of fractional-reserve banking,Reverted 1 edit by [[Special:Contributions/60.242.186.198|60.242.186.198]]. ([[WP:TW|TW]])
2009-06-03T21:29:35+00:00,294254731,291983806,0,201.250.28.185,Talk:Criticism of fractional-reserve banking,/* Neutrality and Content */
2012-02-22T09:23:42+00:00,478222529,476589033,0,Koavf,Talk:Criticism of fractional-reserve banking,moved [[Talk:Criticism of fractional-reserve banking]] to [[Talk:Criticism of fractional reserve banking]]: per main
2012-02-13T04:54:30+00:00,476589033,476404254,0,MiszaBot I,Talk:Criticism of fractional-reserve banking,Archiving 2 thread(s) (older than 90d) to [[Talk:Criticism of fractional-reserve banking/Archive 2]].
2011-10-13T04:44:37+00:00,455321316,455248894,0,MiszaBot I,Talk:Criticism of fractional-reserve banking,Archiving 2 thread(s) (older than 90d) to [[Talk:Criticism of fractional-reserve banking/Archive 2]].
2007-03-10T01:30:54+00:00,113968081,111197947,0,Parker007,Talk:Criticism of fractional-reserve banking,Tagging  using [[Project:AWB|AWB]]
2009-05-06T22:34:27+00:00,288361215,288360978,0,SineBot,Talk:Criticism of fractional-reserve banking,"Signing comment by [[Special:Contributions/81.132.105.229|81.132.105.229]] - ""/* Neutrality and Content */"""
2009-08-14T07:41:42+00:00,307897076,307855483,0,Lawrencekhoo,Talk:Criticism of fractional-reserve banking,/* Page title seems a severe misrepresentation */
2008-07-24T07:40:28+00:00,227581817,227581690,0,165.228.166.192,Talk:Criticism of fractional-reserve banking,/* Strange Bizarre Edit War Suddenly Appears */
2009-09-19T20:58:00+00:00,314976949,307897076,0,96.32.136.3,Talk:Criticism of fractional-reserve banking,
2012-02-12T05:54:34+00:00,476404254,467380658,0,RoyBoy,Talk:Criticism of fractional-reserve banking,/* NPOV removed */ new section
2007-09-21T09:34:28+00:00,159354698,159259478,0,32F,Talk:Criticism of fractional-reserve banking,"Those enlightened by the apparent guru of the ""principal author"" don't have to fit his criteria for the rest of us.  Far from it."
2009-04-12T22:06:42+00:00,283437059,283436810,0,SineBot,Talk:Criticism of fractional-reserve banking,"Signing comment by [[Special:Contributions/68.114.18.159|68.114.18.159]] - """""
2010-10-03T12:35:58+00:00,388457927,388422619,0,Elockid,Talk:Criticism of fractional-reserve banking,"Protected Talk:Criticism of fractional-reserve banking: Excessive [[WP:SOCK|sock puppetry]]: Repeated sockpuppetry ([edit=autoconfirmed] (expires 12:35, 3 November 2010 (UTC)) [move=autoconfirmed] (expires 12:35, 3 November 2010 (UTC)))"
2008-12-05T08:48:55+00:00,256007358,256007215,0,68.198.28.127,Talk:Criticism of fractional-reserve banking,/* conventional analysis */
2011-09-12T20:36:17+00:00,450144260,450144032,0,SineBot,Talk:Criticism of fractional-reserve banking,"Dating comment by [[User:Obbas|Obbas]] - ""/* Attempted to de-bias this page */"""
2009-12-08T15:32:45+00:00,330470280,330470055,0,SineBot,Talk:Criticism of fractional-reserve banking,"Signing comment by [[Special:Contributions/75.147.20.77|75.147.20.77]] - """""
2010-08-29T16:11:10+00:00,381710244,381687731,0,89.243.250.114,Talk:Criticism of fractional-reserve banking,
2010-05-01T06:12:40+00:00,359394875,359383077,0,$atan's$pawn,Talk:Criticism of fractional-reserve banking,
2010-01-28T14:54:19+00:00,340532610,339318013,0,DumbBOT,Talk:Criticism of fractional-reserve banking,removing a protection template from a non-protected page ([[User:DumbBOT/Protection|info]])
2009-02-20T23:56:12+00:00,272171392,272168524,0,Michael.suede,Talk:Criticism of fractional-reserve banking,/* Neutrality and Content */
2010-08-06T03:27:54+00:00,377418525,369648946,0,MiszaBot I,Talk:Criticism of fractional-reserve banking,Archiving 2 thread(s) (older than 90d) to [[Talk:Criticism of fractional-reserve banking/Archive 2]].
2007-02-26T23:42:13+00:00,111197947,0,0,WatchlistBot,Talk:Criticism of fractional-reserve banking,Adding Numismaticnotice
2008-09-28T08:47:05+00:00,241495187,238989503,0,60.242.91.158,Talk:Criticism of fractional-reserve banking,
2010-06-19T03:06:53+00:00,368918036,368824632,0,MiszaBot I,Talk:Criticism of fractional-reserve banking,Archiving 2 thread(s) (older than 90d) to [[Talk:Criticism of fractional-reserve banking/Archive 2]].
2008-05-03T14:03:03+00:00,209904014,209903912,0,Gregalton,Talk:Criticism of fractional-reserve banking,"/* Please, I don't want to fight you (but I will if I have to, and I'll have fun doing it) */"
2009-12-16T06:18:04+00:00,331972346,331971807,0,TheFoodChainIsDying,Talk:Criticism of fractional-reserve banking,/* References to Ellen Hodgson Brown don't need to be obliterated */
2010-05-14T13:28:24+00:00,362089361,362078681,0,BigK HeX,Talk:Criticism of fractional-reserve banking,/* Money / credit contractions */ too fringe-y
2010-05-17T03:46:34+00:00,362554833,362540472,0,Oldspammer,Talk:Criticism of fractional-reserve banking,/* Money / credit contractions */ Linked another Wikipedia article page about the 1987 Denver conf.
2010-05-02T03:01:24+00:00,359565742,359394875,0,MiszaBot I,Talk:Criticism of fractional-reserve banking,Archiving 2 thread(s) (older than 90d) to [[Talk:Criticism of fractional-reserve banking/Archive 2]].
2009-05-22T05:00:49+00:00,291554208,291374885,0,Gregalton,Talk:Criticism of fractional-reserve banking,Rvt sockmaster
2008-08-15T07:59:44+00:00,232070062,232062219,0,165.228.166.192,Talk:Criticism of fractional-reserve banking,"1. Use of ""fuck"" is unseemly  2. Personal attacks are prohibited  3. You have nothing intelligent to say  4. Idiots don't last long on WP and can be banned.  Please think carefully before reverting"
2016-12-31T07:34:16+00:00,757543801,738757507,0,InternetArchiveBot,Talk:Fiat money,Notification of altered sources needing review #IABot (v1.2.7.1)
2010-04-03T06:28:11+00:00,353686576,353519539,0,Crosbiesmith,Talk:Fiat money,/* Scotland */ legal tender is not necessary for effective fiat money - citation needed
2016-03-31T18:48:27+00:00,712897900,712895656,0,Reissgo,Talk:Fractional-reserve banking,/* How long can a section be left with citations needed flag? */
2007-02-11T02:40:15+00:00,107223284,104781446,0,67.49.42.239,Talk:Fractional-reserve banking,/* Videos-Documentries */
2018-03-05T07:23:59+00:00,828872747,817533470,0,AfroThundr3007730,Talk:Fractional-reserve banking,/* External links modified */ Checked
2015-06-30T11:44:44+00:00,669320247,669315081,0,Famspear,Talk:Fractional-reserve banking,"/* Flat, categorical unsourced statements */ Thanks!"
2011-06-26T06:19:27+00:00,436288132,436140880,0,MiszaBot I,Talk:Fractional-reserve banking,Archiving 2 thread(s) (older than 30d) to [[Talk:Fractional-reserve banking/Archive 6]].
2012-06-17T09:45:55+00:00,497996618,497966828,0,84.93.170.179,Talk:Fractional-reserve banking,/* (Why) do banks create new money only as a portion of the central bank money deposited? */
2012-01-22T05:09:44+00:00,472558801,472534090,0,John Shandy`,Talk:Fractional-reserve banking,/* Number One Provocation for Wall Street Protest */ Re: added
2009-11-01T11:43:01+00:00,323261899,323261751,0,SineBot,Talk:Fractional-reserve banking,"Signing comment by [[Special:Contributions/190.45.14.46|190.45.14.46]] - """""
2022-03-13T12:29:57+00:00,1076882342,1051843152,0,Reissgo,Talk:Fractional-reserve banking,/* Three Fed economists recommend ditching the money multiplier concept in economics teaching */ new section
2019-05-19T10:14:00+00:00,897781198,891447253,0,Reissgo,Talk:Fractional-reserve banking,/* Why hide the money creation in 3rd paragraph: It is kind of important that this is how banks produce money out of thin air... */
2009-09-23T00:46:22+00:00,315619738,315619511,0,JayHenry,Talk:Fractional-reserve banking,/* Poor start */ f
2010-07-30T04:46:08+00:00,376209227,375719367,0,MiszaBot I,Talk:Fractional-reserve banking,Archiving 2 thread(s) (older than 90d) to [[Talk:Fractional-reserve banking/Archive 4]].
2006-03-05T15:25:27+00:00,42348471,42192120,0,WatchlistBot,Talk:Fractional-reserve banking,Adding Numismaticnotice
2007-06-26T14:29:28+00:00,140745190,124181502,0,Paladinwannabe2,Talk:Fractional-reserve banking,"/* Okay, just... stop it */"
2016-12-05T13:45:31+00:00,753150875,753071829,0,SPECIFICO,Talk:Fractional-reserve banking,/* Demand deposits */ new section
2013-03-05T16:52:18+00:00,542229330,542169368,0,Reissgo,Talk:Fractional-reserve banking,/* Too many poor quality references */
2008-07-28T17:35:12+00:00,228429901,228086875,0,Mik1984,Talk:Fractional-reserve banking,"/* High power money in the ""Money as Debt"" movie */"
2012-04-10T17:53:04+00:00,486661987,485072374,0,Sceptical-h,Talk:Fractional-reserve banking,/* I believe this is a semantic misunderstanding */
2017-04-01T00:46:08+00:00,773210981,757410723,0,Lowercase sigmabot III,Talk:Fractional-reserve banking,Archiving 1 discussion(s) to [[Talk:Fractional-reserve banking/Archive 10]]) (bot
2017-05-22T14:27:35+00:00,781658561,781542849,0,Reissgo,Talk:Fractional-reserve banking,"/* Money multiplier equation: Additional detail added - then removed as claimed ""SYNTH"" */"
2009-12-23T16:03:22+00:00,333571347,333184790,0,Reissgo,Talk:Fractional-reserve banking,fix typo
2006-10-30T13:56:59+00:00,84617793,84581019,0,Andrew Reynolds,Talk:Fractional-reserve banking,Will not make my change
2009-08-20T03:18:29+00:00,308998095,308443090,0,MiszaBot I,Talk:Fractional-reserve banking,Archiving 2 thread(s) (older than 90d) to [[Talk:Fractional-reserve banking/Archive 4]].
2009-05-03T19:17:17+00:00,287693587,287693254,0,Macroeconomics-101,Talk:Fractional-reserve banking,/* The point of confusion */
2011-10-26T10:09:49+00:00,457461184,457242592,0,Lawrencekhoo,Talk:Fractional-reserve banking,/* I believe this is a semantic misunderstanding */
2017-12-29T00:53:10+00:00,817533470,816833434,0,Lowercase sigmabot III,Talk:Fractional-reserve banking,Archiving 1 discussion(s) to [[Talk:Fractional-reserve banking/Archive 12]]) (bot
2015-02-17T10:48:34+00:00,647533649,647533585,0,Reissgo,Talk:Fractional-reserve banking,"/* ""Create credit"" */"
2009-02-05T12:49:18+00:00,268678722,268676083,0,Kura440,Talk:Fractional-reserve banking,/* Restructure Proposed */
2011-05-10T17:30:05+00:00,428447454,428446655,0,Mischling,Talk:Fractional-reserve banking,/* Wiki is wrong on the most basic part of fractional reserve. */
2007-09-02T16:12:07+00:00,155231943,155231448,0,N0 D1C4,Talk:Fractional-reserve banking,
2014-04-06T14:28:52+00:00,603008621,603004188,0,Famspear,Talk:Fractional-reserve banking,/* Criticisms of fractional reserve banking */ Add signature notation.
2008-03-19T07:07:17+00:00,199290295,198477846,0,Analoguni,Talk:Fractional-reserve banking,/* Lead: text suggestion */
2011-10-19T09:43:14+00:00,456326831,456309496,0,Lawrencekhoo,Talk:Fractional-reserve banking,/* I believe this is a semantic misunderstanding */
2012-06-26T17:20:24+00:00,499474731,499272293,0,The Four Deuces,Talk:Fractional-reserve banking,/* criticism */
2007-07-31T19:49:59+00:00,148341285,148039402,0,66.74.81.122,Talk:Fractional-reserve banking,/* All bank notes are redeemable in lawful money on demand */
2015-08-26T04:12:23+00:00,677886401,677886272,0,SineBot,Talk:Fractional-reserve banking,"Signing comment by [[User:Andersmith|Andersmith]] - ""/* reference to Menger */ new section"""
2009-05-31T20:24:03+00:00,293576860,293243961,0,Xtraeme,Talk:Fractional-reserve banking,"/* High power money in the ""Money as Debt"" movie */"
2006-12-04T02:27:42+00:00,91911339,91911321,0,HagermanBot,Talk:Fractional-reserve banking,Marked an unsigned comment by [[User:Michael.gorham|Michael.gorham]]
2018-09-23T15:00:19+00:00,860858058,860303079,0,Bolarno,Talk:Fractional-reserve banking,Not fringe view
2014-02-04T00:18:58+00:00,593812398,592718177,0,Lowercase sigmabot III,Talk:Fractional-reserve banking,Archiving 2 discussion(s) to [[Talk:Fractional reserve banking/Archive 8]]) (bot
2014-01-10T09:00:14+00:00,590049583,589350380,0,Reissgo,Talk:Fractional-reserve banking,/* This stale notion of fractional reserve just creates confusion */
2013-01-20T20:32:16+00:00,534051195,533898036,0,70.190.253.77,Talk:Fractional-reserve banking,"/* General criticisms and banking style alternatives */ 100% is not a fraction, it is a whole number."
2021-10-25T22:31:25+00:00,1051843152,1051840482,0,SPECIFICO,Talk:Fractional-reserve banking,"/* Someone reversed my minor edit of ""Explanation"" ""without explanation"" */"
2022-10-05T00:58:44+00:00,1114138964,1109816100,0,Lowercase sigmabot III,Talk:Fractional-reserve banking,Archiving 1 discussion(s) to [[Talk:Fractional-reserve banking/Archive 13]]) (bot
2013-06-12T04:26:25+00:00,559503206,559463713,0,John Shandy`,Talk:Fractional-reserve banking,/* Re: Example of Deposit Creation */ Re:
2006-08-20T18:10:47+00:00,70799107,42348471,0,Quietvoice,Talk:Fractional-reserve banking,Tags added
2013-11-09T23:52:57+00:00,580968948,580940875,0,Darkwind,Talk:Fractional-reserve banking,/* Protected again */ new section
2015-11-01T23:49:24+00:00,688604528,686417915,0,Jarryd Johnson,Talk:Fractional-reserve banking,/* Inclusion of 'Inside Money' and 'Outside Money' terminology */ new section
2007-04-19T20:46:24+00:00,124181502,122544209,0,Blue666man,Talk:Fractional-reserve banking,
2015-02-02T02:08:14+00:00,645245259,645136216,0,SPECIFICO,Talk:Fractional-reserve banking,"/* RfC: How to decide which view is now mainstream, avoiding original research */"
2012-08-10T19:20:46+00:00,506772782,506772518,0,Famspear,Talk:Fractional-reserve banking,/* NPOV [Criticism] */ comment.
2014-01-05T22:05:40+00:00,589350380,589349892,0,Pgreenfinch,Talk:Fractional-reserve banking,/* This stale notion of fractional reserve just creates confusion */ capital
2019-04-08T00:51:38+00:00,891447253,891360312,0,Lowercase sigmabot III,Talk:Fractional-reserve banking,Archiving 1 discussion(s) to [[Talk:Fractional-reserve banking/Archive 12]]) (bot
2013-01-19T20:50:32+00:00,533898036,533892720,0,Prettyladieslover,Talk:Fractional-reserve banking,"[[Full-reserve banking]], also known as 100% reserve banking   can not exist   in economics by definition"
2017-08-16T14:44:23+00:00,795795883,795795796,0,Lawrencekhoo,Talk:Fractional-reserve banking,/* Money supplies around the world */
2007-09-26T08:56:33+00:00,160431251,159896238,0,86.151.152.146,Talk:Fractional-reserve banking,/* Two 'views' of fractional reserve banking are not equivalent */
2014-07-01T18:59:29+00:00,615191709,615191542,0,Srich32977,Talk:Fractional-reserve banking,/* REISSGO's proposed edit */ Remove username from talk page heading -- see [[WP:TALKNEW]]
2008-02-07T11:47:26+00:00,189712888,189664015,0,Nshuks7,Talk:Fractional-reserve banking,/* Should Reserve requirement merge into this article? */ Structure for this article
2007-10-25T22:38:26+00:00,167087496,160431251,0,99.240.15.30,Talk:Fractional-reserve banking,/* Videos-Documentries */
2015-06-07T16:16:29+00:00,665906781,665902169,0,Famspear,Talk:Fractional-reserve banking,"/* ""financial intermediaries"" - main page contradicts itself */ correct a typo"
2016-12-30T15:05:37+00:00,757410723,757397932,0,Famspear,Talk:Fractional-reserve banking,/* Time to change which theory gets prominence? - Summary */ comment
2009-08-30T03:15:55+00:00,310826494,308998095,0,MiszaBot I,Talk:Fractional-reserve banking,Archiving 2 thread(s) (older than 90d) to [[Talk:Fractional-reserve banking/Archive 4]].
2009-11-28T16:24:43+00:00,328400904,328381531,0,JayHenry,Talk:Fractional-reserve banking,/* FRB does not cause long term inflation in an of itself */ agree here
2007-12-26T19:20:16+00:00,180292062,180282345,0,Gregalton,Talk:Fractional-reserve banking,"/* ""Lending more than you have is fraud"" */ new section"
2011-06-02T06:15:03+00:00,432128420,429625119,0,MiszaBot I,Talk:Fractional-reserve banking,Archiving 2 thread(s) (older than 30d) to [[Talk:Fractional-reserve banking/Archive 6]].
2008-03-10T08:05:25+00:00,197187286,197127349,0,Gregalton,Talk:Fractional-reserve banking,tweak archiver to 100d - less hot this week
2010-03-19T19:59:55+00:00,350847084,350847013,0,SineBot,Talk:Fractional-reserve banking,"Signing comment by [[Special:Contributions/24.1.107.40|24.1.107.40]] - ""/* Latest revision made things worse */"""
2010-06-24T11:57:59+00:00,369899198,369776943,0,122.110.15.230,Talk:Fractional-reserve banking,/* Merger proposal */ minor formatting
2007-09-21T10:14:02+00:00,159359370,159355764,0,202.130.159.184,Talk:Fractional-reserve banking,"/* Okay, just... stop it */"
2011-09-15T09:59:38+00:00,450616815,447997691,0,Lawrencekhoo,Talk:Fractional-reserve banking,moved [[Talk:Fractional-reserve banking]] to [[Talk:Fractional reserve banking]]: Unhyphenated term is much more common than hyphenated term
2016-12-13T18:54:06+00:00,754638773,754638013,0,Famspear,Talk:Fractional-reserve banking,"/* One textbook is not ""many"" textbooks */ comment"
2011-11-19T16:21:54+00:00,461443656,459485196,0,Chdouglas,Talk:Fractional-reserve banking,/* Banks do not lend deposits.  They create them. */
2015-11-27T17:36:40+00:00,692698604,692660123,0,TheFreeloader,Talk:Fractional-reserve banking,/* Consensus on money creation */ I agree with LK.
2013-10-30T02:40:07+00:00,579393723,579393690,0,AmourReflection,Talk:Fractional-reserve banking,/* Need secondary sources for criticism sections */
2011-08-03T06:40:43+00:00,442802665,442678548,0,MiszaBot I,Talk:Fractional-reserve banking,Archiving 2 thread(s) (older than 30d) to [[Talk:Fractional-reserve banking/Archive 6]].
2015-12-26T22:07:24+00:00,696912278,696883346,0,Mmeijeri,Talk:Fractional-reserve banking,/* Full reserve banking initiative in the Netherlands */ new section
2010-11-27T07:44:10+00:00,399099418,398995702,0,BigK HeX,Talk:Fractional-reserve banking,/* This article indicates that much of the FRB article is wrong */ re
2012-10-29T15:01:42+00:00,520435746,519879087,0,Count Truthstein,Talk:Fractional-reserve banking,/* Maturity Transformation vs Financial Intermediation */
2013-08-13T19:36:59+00:00,568400860,568394730,0,Ravensfire,Talk:Fractional-reserve banking,/* Reverted Kucinich edit */
2011-01-13T15:15:28+00:00,407669066,405093213,0,Reissgo,Talk:Fractional-reserve banking,/* Money multiplier ref(s) */
2021-10-05T08:25:32+00:00,1048301292,1048300423,0,Reissgo,Talk:Fractional-reserve banking,I'm going to retract this and put forward a different argument later
2014-08-02T14:30:36+00:00,619554758,619386682,0,Reissgo,Talk:Fractional-reserve banking,tidy
2008-01-25T21:44:12+00:00,186895933,186600259,0,167.1.150.121,Talk:Fractional-reserve banking,/* Lets keep the table and graph that explains the essence of the fractional reserve system */
2010-05-15T01:32:35+00:00,362194629,362079318,0,194.144.122.89,Talk:Fractional-reserve banking,/* Infinite lending? */
2010-09-30T11:49:04+00:00,387898872,387893789,0,Cretog8,Talk:Fractional-reserve banking,Undid revision 387893789 by [[Special:Contributions/Banker-GovtMafioso|Banker-GovtMafioso]] ([[User talk:Banker-GovtMafioso|talk]])
2011-11-07T17:32:23+00:00,459485196,459146592,0,John Shandy`,Talk:Fractional-reserve banking,/* I believe this is a semantic misunderstanding */ Re:
2009-04-23T18:31:00+00:00,285698233,285697975,0,Lawrencekhoo,Talk:Fractional-reserve banking,/* Contradiction of History of Banking */
2008-11-24T01:36:45+00:00,253707192,252107285,0,MiszaBot I,Talk:Fractional-reserve banking,Archiving 2 thread(s) (older than 100d) to [[Talk:Fractional-reserve banking/Archive 3]].
2016-11-03T14:47:20+00:00,747642902,747633572,0,Famspear,Talk:Fractional-reserve banking,/* Time to change which theory gets prominence? */ comment.
2008-10-26T23:41:41+00:00,247874589,247874363,0,SineBot,Talk:Fractional-reserve banking,"Signing comment by [[User:Mischling|Mischling]] - ""/* it's not misleading, please provide sources */"""
2009-05-15T02:17:02+00:00,290014104,289889857,0,MiszaBot I,Talk:Fractional-reserve banking,Archiving 2 thread(s) (older than 90d) to [[Talk:Fractional-reserve banking/Archive 4]].
2016-06-30T00:54:53+00:00,727596576,725956864,0,Lowercase sigmabot III,Talk:Fractional-reserve banking,Archiving 1 discussion(s) to [[Talk:Fractional-reserve banking/Archive 10]]) (bot
2013-10-29T05:21:15+00:00,579229866,579229427,0,AmourReflection,Talk:Fractional-reserve banking,/* Hulsmann & Rothbard (PhD. Economists) */
2011-06-19T06:10:11+00:00,435047516,435046030,0,Andrewedwardjudd,Talk:Fractional-reserve banking,"/* How money is ""created"" is not explained */"
2009-04-03T03:05:58+00:00,281428719,281428325,0,Mathgeek321,Talk:Fractional-reserve banking,/* Leveraging. */
2015-04-20T14:11:05+00:00,657330678,657329634,0,67.243.29.174,Talk:Fractional-reserve banking,"/* Stop edit warring, take your disputes to your own talk pages */"
2013-05-14T01:52:25+00:00,554985535,554666767,0,MiszaBot I,Talk:Fractional-reserve banking,Robot: Archiving 2 threads (older than 30d) to [[Talk:Fractional reserve banking/Archive 7]].
2011-08-26T07:47:08+00:00,446788025,445652061,0,Red Deathy,Talk:Fractional-reserve banking,/* Money creation table */ new section
2016-08-26T00:47:33+00:00,736219303,727596576,0,Lowercase sigmabot III,Talk:Fractional-reserve banking,Archiving 1 discussion(s) to [[Talk:Fractional-reserve banking/Archive 10]]) (bot
2008-05-07T01:23:43+00:00,210707308,210704444,0,Gregalton,Talk:Fractional-reserve banking,tweak archiver to 130d
2014-03-17T06:24:39+00:00,599971850,599971690,0,122.200.59.30,Talk:Fractional-reserve banking,/* Criticisms of fractional reserve banking */
2007-02-01T05:51:59+00:00,104781446,99781264,0,Sim~enwiki,Talk:Fractional-reserve banking,A lot of conpiracy theory going on today...
2006-10-25T13:55:23+00:00,83636034,83609806,0,Striver,Talk:Fractional-reserve banking,rv blanking
2011-09-02T06:31:04+00:00,447997691,446788025,0,MiszaBot I,Talk:Fractional-reserve banking,Archiving 2 thread(s) (older than 30d) to [[Talk:Fractional-reserve banking/Archive 6]].
2008-10-30T04:35:10+00:00,248557018,247874589,0,Ron Paul...Ron Paul...,Talk:Fractional-reserve banking,/* Headline text */  Removed typo
2013-01-13T08:10:08+00:00,532829986,532823180,0,Srich32977,Talk:Fractional-reserve banking,/* These should be external links */ Comment
2007-12-27T09:44:17+00:00,180397463,180397054,0,Analoguni,Talk:Fractional-reserve banking,/* Lets keep the table and graph that explains the essence of the fractional reserve system */
2011-10-18T00:13:08+00:00,456098815,456098499,0,Chdouglas,Talk:Fractional-reserve banking,/* Banks do not lend deposits.  They create them. */
2014-06-14T23:09:13+00:00,612945970,611468763,0,Lowercase sigmabot III,Talk:Fractional-reserve banking,Archiving 4 discussion(s) to [[Talk:Fractional reserve banking/Archive 8]]) (bot
2014-06-04T02:51:23+00:00,611468763,609965350,0,Lowercase sigmabot III,Talk:Fractional-reserve banking,Archiving 2 discussion(s) to [[Talk:Fractional reserve banking/Archive 8]]) (bot
2010-10-06T17:50:57+00:00,389139555,389138005,0,Cretog8,Talk:Fractional-reserve banking,/* Why accept the Fed's own output as reliable sources on this page? */
2021-08-13T01:03:03+00:00,1038513287,1038462921,0,Lowercase sigmabot III,Talk:Fractional-reserve banking,Archiving 1 discussion(s) to [[Talk:Fractional-reserve banking/Archive 13]]) (bot
2016-06-19T00:43:53+00:00,725956864,725902778,0,Lowercase sigmabot III,Talk:Fractional-reserve banking,"Archiving 10 discussion(s) to [[Talk:Fractional-reserve banking/Archive 10]], [[Talk:Fractional-reserve banking/Archive 9]]) (bot"
2009-12-03T22:52:10+00:00,329554632,328400904,0,78.143.210.141,Talk:Fractional-reserve banking,fix typo
2011-06-05T06:13:41+00:00,432635894,432128420,0,MiszaBot I,Talk:Fractional-reserve banking,Archiving 2 thread(s) (older than 30d) to [[Talk:Fractional-reserve banking/Archive 6]].
2018-09-19T18:53:18+00:00,860303079,860294366,0,Tronvillain,Talk:Fractional-reserve banking,/* Not fringe view */ r
2006-09-30T22:16:53+00:00,78760006,77978113,0,Xyzzyplugh,Talk:Fractional-reserve banking,adding section heading to early discussions to attempt to make this talk page easier to follow
2009-06-18T02:21:09+00:00,297080396,296555046,0,MiszaBot I,Talk:Fractional-reserve banking,Archiving 2 thread(s) (older than 90d) to [[Talk:Fractional-reserve banking/Archive 4]].
2022-07-26T01:03:13+00:00,1100455266,1098377565,0,Lowercase sigmabot III,Talk:Fractional-reserve banking,Archiving 1 discussion(s) to [[Talk:Fractional-reserve banking/Archive 13]]) (bot
2022-09-12T00:58:49+00:00,1109816100,1109462864,0,Lowercase sigmabot III,Talk:Fractional-reserve banking,Archiving 1 discussion(s) to [[Talk:Fractional-reserve banking/Archive 13]]) (bot
2009-07-16T22:36:34+00:00,302500025,302459108,0,EGeek,Talk:Fractional-reserve banking,/* This article is wrong */ Explanation using example
2009-08-01T21:00:03+00:00,305519931,305476856,0,Reissgo,Talk:Fractional-reserve banking,/* Videos-Documentries */
2010-09-19T20:11:57+00:00,385780906,385775642,0,Reissgo,Talk:Fractional-reserve banking,":: I suspect that it would grow to become too large. Also, in countries with no reserve requirement it would be misleading to describe their monetary system as a fractional reserve one. It should inst"
2014-11-17T12:56:28+00:00,634216078,632631566,0,193.206.22.225,Talk:Fractional-reserve banking,/* Example of money multiplier effect confusing */ new section
2007-12-06T22:01:35+00:00,176238325,174876394,0,Chadlupkes,Talk:Fractional-reserve banking,/* Supposed loaning of demand deposits and national banks reserve accounts with the Fed */
2015-10-19T00:58:56+00:00,686417915,677886401,0,Cyberbot II,Talk:Fractional-reserve banking,Notification of altered sources needing review ([[en:WP:PEACHY|Peachy 2.0 (alpha 8)]])
2009-04-30T15:55:03+00:00,287069885,286990839,0,Macroeconomics-101,Talk:Fractional-reserve banking,/* The point of confusion */
2008-01-24T15:27:32+00:00,186600259,186599921,0,167.1.150.177,Talk:Fractional-reserve banking,
2015-11-18T02:06:34+00:00,691167142,691167016,0,Lawrencekhoo,Talk:Fractional-reserve banking,/* Fringe assertions */
2007-04-13T18:04:16+00:00,122544209,122542306,0,Famspear,Talk:Fractional-reserve banking,/* Latest revision made things worse */ Add notation on unsigned comment from 10 Feb 2007.
2010-09-15T13:49:14+00:00,384980872,384980455,0,BigK HeX,Talk:Fractional-reserve banking,/* Modern Money Mechanics is by no means modern */ re
2013-10-09T22:48:20+00:00,576509783,576495230,0,Reissgo,Talk:Fractional-reserve banking,/* Top economists dismiss textbook explanations of our monetary system as garbage */
2010-01-28T22:29:24+00:00,340607722,340607217,0,Gaytan,Talk:Fractional-reserve banking,/* George Selgin and Austrian Economics */
2010-08-13T04:50:40+00:00,378660357,376209227,0,MiszaBot I,Talk:Fractional-reserve banking,Archiving 2 thread(s) (older than 90d) to [[Talk:Fractional-reserve banking/Archive 4]].
2008-04-18T07:27:35+00:00,206444321,206196555,0,Protonk,Talk:Fractional-reserve banking,/* Clarification */
2014-03-19T21:17:23+00:00,600362332,600360222,0,Reissgo,Talk:Fractional-reserve banking,"/* Reference ""Where Does Money Come From"" */"
2010-11-13T21:48:52+00:00,396583277,396583078,0,BigK HeX,Talk:Fractional-reserve banking,/* Time deposits and the money multiplier */ elab
2011-04-23T07:39:57+00:00,425463900,425462035,0,Andrewedwardjudd,Talk:Fractional-reserve banking,"/* ""Removing pointy addition. Appereantly Goodhart and King don't really dispute anything"" -freeloader */"
2022-08-22T13:51:46+00:00,1105944705,1105944648,0,SPECIFICO,Talk:Fractional-reserve banking,/* Opening statement */
2007-10-02T23:57:35+00:00,161905990,161904627,0,SineBot,Talk:Full-reserve banking,"Signing comment by [[User:85.139.171.190|85.139.171.190]] - """""
2022-04-10T05:51:33+00:00,1081871793,1077844362,0,IznoRepeat,Talk:Full-reserve banking,/* top */unsubst substed template in support of [[MediaWiki talk:Common.css/to do#description|TemplateStyles migration]]
2017-10-09T02:09:49+00:00,804448945,804396859,0,Lowercase sigmabot III,Talk:Full-reserve banking,Archiving 2 discussion(s) to [[Talk:Full-reserve banking/Archive 1]]) (bot
2011-12-04T14:44:20+00:00,464046561,464046456,0,71.213.49.150,Talk:Full-reserve banking,/* full-reserve banking and a gold standard would not would eliminate the need for open market purchases */
2020-11-30T02:29:52+00:00,991444055,991402078,0,Lowercase sigmabot III,Talk:Full-reserve banking,Archiving 2 discussion(s) to [[Talk:Full-reserve banking/Archive 1]]) (bot
2016-06-17T01:46:51+00:00,725655102,725508757,0,Lowercase sigmabot III,Talk:Full-reserve banking,Archiving 2 discussion(s) to [[Talk:Full-reserve banking/Archive 1]]) (bot
2014-08-21T09:47:18+00:00,622174655,622162489,0,Reissgo,Talk:Full-reserve banking,/* Proposals for full reserve banking systems */
2008-03-31T18:20:20+00:00,202348092,200928105,0,01001,Talk:Full-reserve banking,/* Misleading lead */
2008-08-19T22:58:47+00:00,233001071,217256394,0,Nirvana2013,Talk:Full-reserve banking,Info
2013-11-18T07:26:40+00:00,582169799,554785518,0,Tiggum,Talk:Ginger Meggs,/* Names of friends */ Tony the monkey.
2014-12-21T10:23:38+00:00,639031090,632867376,0,Magioladitis,Talk:Ginger Meggs,cleanup using [[Project:AWB|AWB]] (10529)
2006-07-25T22:21:26+00:00,65845347,64464093,0,Kitteneatkitten,Talk:Inflation,/* Gold section is unacceptable */
2014-01-16T13:32:42+00:00,590964422,585758653,0,194.118.178.167,Talk:Inflation,"/* little change,  money supply growth */ new section"
2022-06-17T16:32:15+00:00,1093596958,1093586089,0,Qwerfjkl,Talk:Inflation,Mass rollback Bare URL tagging on talk pages ([[Special:Permalink/1093591234#Bare URL PDF on a talk page?|request]])
2017-12-03T00:41:26+00:00,813310793,813297332,0,Lowercase sigmabot III,Talk:Inflation,Archiving 2 discussion(s) to [[Talk:Inflation/Archive 4]]) (bot
2015-01-13T22:46:08+00:00,642372241,642371950,0,Lance W. Haverkamp,Talk:Inflation,"/* No, that's entirely backwards */  clarification"
2006-05-14T11:47:36+00:00,53139145,53135714,0,RandomP,Talk:Inflation,/* Opening para + NPOV */ please help!
2022-01-11T18:11:51+00:00,1065077376,1065077315,0,SPECIFICO,Talk:Inflation,/* The intro */
2010-11-21T07:05:40+00:00,398011851,397920935,0,MiszaBot I,Talk:Inflation,Archiving 2 thread(s) (older than 90d) to [[Talk:Inflation/Archive 4]].
2012-04-04T01:32:38+00:00,485431064,483011465,0,Robbygay,Talk:Inflation,/* Picture of Inflation */
2009-05-11T03:51:05+00:00,289188708,289188566,0,SineBot,Talk:Inflation,"Signing comment by [[Special:Contributions/128.143.1.75|128.143.1.75]] - ""/* Why does this happen? */"""
2017-03-29T00:38:34+00:00,772731525,772596423,0,Lowercase sigmabot III,Talk:Inflation,Archiving 2 discussion(s) to [[Talk:Inflation/Archive 4]]) (bot
2009-12-07T19:53:42+00:00,330298169,330226278,0,PennySeven,Talk:Inflation,/* Inflation concepts */
2021-11-06T20:35:56+00:00,1053908568,1053896093,0,Soibangla,Talk:Inflation,/* Inflation not the same as price inflation */
2016-02-19T07:56:52+00:00,705739822,678373619,0,Dmitri 152,Talk:Inflation,"/* No, that definition is entirely backwards */"
2020-08-28T08:04:41+00:00,975394721,975394611,0,SineBot,Talk:Inflation,"Signing comment by [[User:Nightside|Nightside]] - ""/* The intro */"""
2016-06-08T00:32:06+00:00,724239619,724151684,0,Lowercase sigmabot III,Talk:Inflation,Archiving 2 discussion(s) to [[Talk:Inflation/Archive 4]]) (bot
2021-01-15T16:54:21+00:00,1000558793,1000558595,0,SineBot,Talk:Inflation,"Signing comment by [[Special:Contributions/2A0A:A543:24EF:0:1973:64C7:7F71:9319|2A0A:A543:24EF:0:1973:64C7:7F71:9319]] - ""/* Psychological aspects are missing */ new section"""
2019-04-05T22:40:04+00:00,891137734,890486292,0,Soibangla,Talk:Inflation,/* Offline references */ new section
2020-03-31T00:39:55+00:00,948254535,948176530,0,Lowercase sigmabot III,Talk:Inflation,Archiving 3 discussion(s) to [[Talk:Inflation/Archive 4]]) (bot
2007-08-07T08:21:50+00:00,149728675,149716972,0,Cjvnvjdoid,Talk:Inflation,archiving talk page- long overdue
2019-10-01T16:30:18+00:00,919058847,918980289,0,BernardoSulzbach,Talk:Inflation,Reverted 1 edit by [[Special:Contributions/213.87.249.188|213.87.249.188]] ([[User talk:213.87.249.188|talk]]) to last revision by BernardoSulzbach ([[WP:TW|TW]])
2019-02-04T19:10:26+00:00,881776490,881701956,0,183.178.187.191,Talk:Inflation,/* Inflation charts */
2011-05-12T17:57:06+00:00,428791100,428790934,0,SineBot,Talk:Inflation,"Signing comment by [[Special:Contributions/213.58.152.212|213.58.152.212]] - ""/* Narrow-mindedness presented in this article and discussion page. */"""
2022-07-30T14:22:54+00:00,1101342725,1101289514,0,Antandrus,Talk:Inflation,Reverted edits by [[Special:Contribs/2603:6080:9600:E900:3D9C:7B30:C801:23B6|2603:6080:9600:E900:3D9C:7B30:C801:23B6]] ([[User talk:2603:6080:9600:E900:3D9C:7B30:C801:23B6|talk]]) to last version by SPECIFICO
2009-03-04T10:40:50+00:00,274895683,274864507,0,Lawrencekhoo,Talk:Inflation,/* Controversy surround inflation */
2010-09-29T01:25:24+00:00,387643283,387476963,0,DumbBOT,Talk:Inflation,removing a protection template from a non-protected page ([[User:DumbBOT/Protection|info]])
2008-11-03T22:29:29+00:00,249506572,249506318,0,SineBot,Talk:Inflation,"Signing comment by [[Special:Contributions/209.129.64.1|209.129.64.1]] - ""/* Price stability */"""
2009-12-16T22:47:44+00:00,332138548,332116220,0,Cretog8,Talk:Inflation,[[WP:UNDO|Undid]] revision 332116220 by [[Special:Contributions/PennySeven|PennySeven]] ([[User talk:PennySeven|talk]]) remove personal bit not related to article improvement
2009-10-21T01:34:21+00:00,321114129,321087199,0,Bilby,Talk:Inflation,/* I propose - again- that the term erode as it relates to inflation should be changed to destroy in the article. */ Reply
2006-11-21T08:33:58+00:00,89194619,86119204,0,Eugene.hercun,Talk:Inflation,/* The Truth about the Goldbugs */
2007-09-09T19:31:43+00:00,156763562,150638049,0,82.123.235.156,Talk:Inflation,
2022-06-24T01:15:55+00:00,1094694845,1094693800,0,SPECIFICO,Talk:Inflation,/* First sentence is incomplete. */
2022-05-26T11:19:06+00:00,1089926373,1089920914,0,Dan Ratan,Talk:Inflation,/* Source improvement request */ weird typo
2006-05-31T03:41:02+00:00,56064968,55491509,0,RandomP,Talk:Inflation,/* Gold */ mediation?
2018-12-22T08:57:13+00:00,874897616,874897545,0,SineBot,Talk:Inflation,"Signing comment by [[Special:Contributions/46.189.233.85|46.189.233.85]] - ""/* Measurement and reporting of inflation */"""
2007-01-07T00:53:38+00:00,98990401,98990248,0,ProfessorPaul,Talk:Inflation,/* A deletion without explanation */
2014-05-01T15:03:17+00:00,606633963,590964422,0,Havell,Talk:Inflation,Removed Bounty Board notices from talk page due to the Bounty Board being made historical
2007-07-10T12:05:07+00:00,143710672,143686451,0,Spectacled Owl,Talk:Inflation,/* Real Value Accounting is correct but it is original research. */
2011-10-19T08:41:40+00:00,456321694,456224952,0,MiszaBot I,Talk:Inflation,Archiving 2 thread(s) (older than 90d) to [[Talk:Inflation/Archive 4]].
2009-01-31T05:40:14+00:00,267557698,267498605,0,Gregalton,Talk:Inflation,/* Definition of Inflation */
2011-02-08T17:24:33+00:00,412748232,412748073,0,SineBot,Talk:Inflation,"Signing comment by [[Special:Contributions/24.153.223.84|24.153.223.84]] - ""/* Place ""Related definitions"" second. */"""
2013-04-30T11:22:11+00:00,552868719,545848123,0,MFlet1,Talk:Inflation,/* NAIRU */ new section
2010-06-28T14:40:43+00:00,370606739,370606550,0,Satori Son,Talk:Inflation,RVT banned [[User:PennySeven]]
2014-09-02T00:11:54+00:00,623784482,623717237,0,Lowercase sigmabot III,Talk:Inflation,Archiving 2 discussion(s) to [[Talk:Inflation/Archive 4]]) (bot
2011-12-18T00:26:54+00:00,466430456,456321694,0,Reywas92,Talk:Inflation,not numismatic
2021-07-16T22:57:19+00:00,1033965797,1033885605,0,Lavidavi00,Talk:Inflation,/* Hyperinflation harm is not an opinable or debated matter */
2008-12-03T02:00:12+00:00,255550773,255409948,0,MiszaBot I,Talk:Inflation,Archiving 2 thread(s) (older than 30d) to [[Talk:Inflation/Archive 3]].
2010-10-11T22:39:15+00:00,390156538,390137298,0,Clydesidemounter,Talk:Inflation,/* Hunter Lewis is a very notable author: */
2015-08-29T00:31:57+00:00,678373619,678218418,0,Lowercase sigmabot III,Talk:Inflation,Archiving 2 discussion(s) to [[Talk:Inflation/Archive 4]]) (bot
2009-05-26T22:13:14+00:00,292537758,292536479,0,Manixrock,Talk:Inflation,"/* Inflation, the true, and simple Definition. */"
2006-08-25T05:18:12+00:00,71752759,71686617,0,Stirling Newberry,Talk:Inflation,/* inflation is a rise in the aggregate money supply */
2010-03-08T00:44:47+00:00,348433596,348431657,0,Tanthalas39,Talk:Inflation,"Protected Talk:Inflation: Excessive [[WP:SOCK|sock puppetry]] ([edit=autoconfirmed] (expires 00:44, 15 March 2010 (UTC)) [move=autoconfirmed] (expires 00:44, 15 March 2010 (UTC)))"
2015-06-05T00:49:39+00:00,665548447,665479765,0,Lowercase sigmabot III,Talk:Inflation,Archiving 2 discussion(s) to [[Talk:Inflation/Archive 4]]) (bot
2009-07-21T17:00:02+00:00,303367382,303367163,0,SineBot,Talk:Inflation,"Signing comment by [[Special:Contributions/128.227.48.133|128.227.48.133]] - """""
2008-01-25T07:27:55+00:00,186770547,186770377,0,SineBot,Talk:Inflation,"Signing comment by [[User:59.95.210.43|59.95.210.43]] - """""
2008-05-28T01:40:12+00:00,215409550,211571659,0,67.14.250.188,Talk:Inflation,
2009-04-05T13:12:27+00:00,281889502,281867549,0,PennySeven,Talk:Inflation,/* Inflation (a price increase) as a separate article */
2010-04-22T05:20:30+00:00,357562333,355527614,0,MiszaBot I,Talk:Inflation,Archiving 2 thread(s) (older than 90d) to [[Talk:Inflation/Archive 3]].
2009-10-15T04:08:22+00:00,319955617,319080306,0,MiszaBot I,Talk:Inflation,Archiving 2 thread(s) (older than 90d) to [[Talk:Inflation/Archive 3]].
2006-05-27T01:00:40+00:00,55348670,55348284,0,Carbonate,Talk:Inflation,Labour
2009-08-24T03:02:17+00:00,309715031,309713042,0,PennySeven,Talk:Inflation,/* Inflation has no effect on the real value of non-monetary items */
2020-11-27T11:53:53+00:00,990944193,989961821,0,85.140.27.56,Talk:Inflation,/* Acceleration. */ new section
2013-07-10T02:10:07+00:00,563606448,563497048,0,MiszaBot I,Talk:Inflation,Robot: Archiving 2 threads (older than 90d) to [[Talk:Inflation/Archive 4]].
2012-09-20T10:04:38+00:00,513674721,513669078,0,Cupco,Talk:Inflation,/* Shoe leather and Menu costs? */
2022-05-05T09:32:19+00:00,1086292558,1086291322,0,IndentBot,Talk:Inflation,"Adjusted indent/list markup per [[MOS:INDENTMIX]], [[MOS:INDENTGAP|INDENTGAP]], [[MOS:LISTGAP|LISTGAP]]. Total of 19 lines deleted or modified."
2009-03-23T20:04:03+00:00,279217462,279217217,0,SineBot,Talk:Inflation,"Signing comment by [[Special:Contributions/71.125.142.8|71.125.142.8]] - ""/* Inflation, the true, and simple Definition. */ inflation vs. *price* inflation"""
2007-05-24T18:20:40+00:00,133224782,133224530,0,LeperColony,Talk:Inflation,/* Pre-modern inflation */
2013-10-29T21:19:21+00:00,579349103,579262498,0,Greenrd,Talk:Inflation,reverted inappropriate addition
2010-02-04T22:41:28+00:00,341981781,341833392,0,Cshay,Talk:Inflation,
2006-09-25T07:56:07+00:00,77684266,76813952,0,Stirling Newberry,Talk:Inflation,Restoring deleted material
2010-06-16T05:34:03+00:00,368328141,366315616,0,MiszaBot I,Talk:Inflation,Archiving 2 thread(s) (older than 90d) to [[Talk:Inflation/Archive 4]].
2007-01-24T14:26:12+00:00,102904145,98990401,0,Earth,Talk:Inflation,No mention of Fisher Equation?
2008-05-11T01:20:11+00:00,211571659,211222467,0,MiszaBot I,Talk:Inflation,Archiving 2 thread(s) (older than 180d) to [[Talk:Inflation/Archive 2]].
2006-07-15T18:38:40+00:00,63990145,63806247,0,Hipocrite,Talk:Inflation,/* Tags: */  lolerskates
2016-08-02T16:45:21+00:00,732694877,730551686,0,ExpertIdeasBot,Talk:Inflation,ExpertIdeasBot-changing
2008-01-13T08:31:56+00:00,184007086,184006620,0,Earth,Talk:Inflation,/* Monetary inflation */ cleanup
2012-06-14T03:24:58+00:00,497494728,496657661,0,MiszaBot I,Talk:Inflation,Robot: Archiving 2 threads (older than 90d) to [[Talk:Inflation/Archive 4]].
2007-06-18T20:57:15+00:00,139058701,136605886,0,89.241.175.68,Talk:Inflation,/* I added the quantity theory of money */
2009-11-18T01:37:17+00:00,326454787,326454651,0,Kevinmon,Talk:Inflation,/* Merging */
2008-03-21T14:34:49+00:00,199832857,199798198,0,Carolmooredc,Talk:Inflation,"removed extra instances of ""apology"" which constitue vandalism and put note on users talk page; format"
2021-12-11T20:29:09+00:00,1059817409,1059272342,0,70.161.18.166,Talk:Inflation,"Just explaining to a commenter what he's really asking for, in case he's not kidding..."
2016-05-29T11:01:21+00:00,722649404,721069945,0,I.yeckehzaare,Talk:Inflation,/* Dr. Razzak's comment on this article */
2007-12-18T15:53:37+00:00,178737235,178736830,0,SineBot,Talk:Inflation,"Signing comment by [[User:Sbw01f|Sbw01f]] - ""/* Map is wrong */"""
2012-06-30T10:48:28+00:00,500031391,500031148,0,111.69.251.57,Talk:Inflation,/* Another theory to explain inflation */
2016-07-19T18:54:14+00:00,730551686,726872514,0,35.2.218.26,Talk:Inflation,/* Dr. Faig's comment on this article */
2009-04-03T00:05:50+00:00,281399519,281071951,0,JPG-GR,Talk:Inflation,rm move request template - page has been moved
2012-06-08T21:11:53+00:00,496657661,496646463,0,Bobrayner,Talk:Inflation,/* Value of the Dollar */ reply
2008-04-16T17:08:56+00:00,206055115,205986303,0,Nicolaas Smith,Talk:Inflation,/* Measures of inflation */
2009-07-16T17:28:04+00:00,302448377,302373541,0,NJGW,Talk:Inflation,new sections at the bottom
2020-12-13T13:49:32+00:00,993971309,993967634,0,DanielRigal,Talk:Inflation,remove big chunk of nonsense
2011-04-30T14:43:23+00:00,426730673,426730498,0,SineBot,Talk:Inflation,"Signing comment by [[Special:Contributions/213.58.152.212|213.58.152.212]] - ""/* Narrow-mindedness presented in this article and discussion page. */"""
2018-01-21T20:34:17+00:00,821653391,777337225,0,GregorB,Talk:Jon Cleary,"C class, photo provided"
2006-08-14T13:28:08+00:00,69579362,59800979,0,Kingbotk,Talk:Jon Cleary,Tag with {{[[Template:WPBiography|WPBiography]]}} for [[Wikipedia:Version 1.0 Editorial Team/Index|WP1.0 assessments]]/Living persons bio
2007-04-17T03:02:54+00:00,123431969,102606146,0,Kingbotk,Talk:Jon Cleary,"Bot ([[User:Kingbotk#FAQ|FAQ]]) ([[User:Kingbotk/P|Plugin]]) Tag [[Category:Writer stubs]]. class=Stub, auto=yes, a&e-work-group=yes."
2007-09-16T14:33:51+00:00,158281992,123431969,0,Misarxist,Talk:Jon Cleary,oz lit
2010-07-31T10:09:51+00:00,376404099,376403339,0,JackofOz,Talk:Jon Cleary,/* Jon Cleary's obit. */ Scobie added
2010-11-16T13:21:42+00:00,397097704,395362729,0,Yobot,Talk:Jon Cleary,"Tagging, Set WPBiography work group priorities: a&e,, replaced: {{WP Australia| → {{WikiProject Australia| using [[Project:AWB|AWB]] (7402)"
2018-04-03T15:49:28+00:00,834031700,461238104,0,Tom.Reding,Talk:Lepadidae,"{{WikiProject Arthropods}}: unnamed -> named params, so the article doesn't display 'unassessed'; [[WP:GenFixes]] on, using [[Project:AWB|AWB]]"
2006-11-05T22:36:32+00:00,85928359,84702046,0,Frinkus,Talk:Libertarianism,/* more criticism on anti-animal rights issues needed */ << could be correct.
2017-10-04T20:46:23+00:00,803818027,801085746,0,79.53.157.22,Talk:Libertarianism,
2009-08-09T21:57:26+00:00,307048505,306148918,0,Willy turner,Talk:Libertarianism,
2015-01-06T23:07:47+00:00,641316992,641315748,0,Darkstar1st,Talk:Libertarianism,/* RFC */
2012-06-27T20:31:36+00:00,499654008,499650705,0,North8000,Talk:Libertarianism,
2016-12-09T02:21:46+00:00,753771300,752580451,0,Lowercase sigmabot III,Talk:Libertarianism,Archiving 2 discussion(s) to [[Talk:Libertarianism/Archive 40]]) (bot
2016-09-23T23:48:32+00:00,740886293,740869242,0,Darkstar1st,Talk:Libertarianism,/* Left-Libertarian does not exist outside of books */ Global Libertarian Partys are minarchist
2012-10-03T16:25:56+00:00,515815913,515714222,0,Byelf2007,Talk:Libertarianism,/* Definitional issues */
2021-07-08T17:07:04+00:00,1032631370,1032614512,0,North8000,Talk:Libertarianism,/* This article is a mess */ tweak
2017-04-05T02:58:46+00:00,773902277,773901233,0,IWillBuildTheRoads,Talk:Libertarianism,/* The lede */ add clarification
2021-11-28T00:11:13+00:00,1057494760,1051830089,0,X-Editor,Talk:Libertarianism,
2011-09-28T10:52:00+00:00,452854314,452851255,0,North8000,Talk:Libertarianism,another attempt to bring back taxonomy work
2021-05-19T05:07:26+00:00,1023932644,988942999,0,2409:4060:316:3A5D:F865:7D2:9104:5EC6,Talk:Libertarianism,cmt
2020-11-16T04:02:57+00:00,988942999,987934230,0,Riverine721,Talk:Libertarianism,"/* North's general thoughts */   Was there actually usage of the term ""libertarianism"" from the left after 1885?"
2016-08-21T21:34:17+00:00,735602665,735602347,0,Blue Eyes Cryin,Talk:Libertarianism,"/* Cleanup for Neutrality, Clarity, etc */"
2009-09-29T17:56:12+00:00,316927153,316924837,0,Fifelfoo,Talk:Libertarianism,/* Chilean Chicago Boys belong in Chile section/less POV rendering of other sources */
2019-02-05T18:03:34+00:00,881924168,881923816,0,Finx,Talk:Libertarianism,/* Confussion among the words «libertarian» and «libertarianism» */
2006-08-21T00:25:04+00:00,70864129,70461408,0,Tamfang,Talk:Libertarianism,"/* Citation supporting ""political""?? */ more legible if not all on one line"
2020-07-07T22:10:50+00:00,966577596,966426054,0,Davide King,Talk:Libertarianism,"/* This article is primary source about the use of the term */ : I agree and I am fine with that. [[Left-libertarianism]], [[Libertarian socialism]], [[Libertarianism in the United States]] and [[Right-libertarianism]] are See also sub-articles that go in more detail about each libertarian tradition, that is why I support the current structure.--~~~~"
2022-07-10T17:09:18+00:00,1097420955,1097420823,0,North8000,Talk:Libertarianism,/* Issues with the article */ tweak
2009-02-05T16:06:51+00:00,268707256,268644954,0,Carolmooredc,Talk:Libertarianism,/* Libertarian Party */ how can do without reawakening old arguments
2011-11-13T20:47:11+00:00,460494974,460465344,0,Fifelfoo,Talk:Libertarianism,/* I think we have too many tags */
2014-10-22T11:16:46+00:00,630639989,630491979,0,Blue Eyes Cryin,Talk:Libertarianism,"/* Libertarianism is often thought of as “right-wing” doctrine. This, however, is mistaken for at least two reasons. */"
2020-01-10T02:27:59+00:00,935037702,934709702,0,Davide King,Talk:Libertarianism,/* North's general thoughts */ edited to fix typos
2009-09-16T04:39:31+00:00,314276306,314117911,0,Fifelfoo,Talk:Libertarianism,/* Free market conservatism is not libertarianism */
2017-05-20T10:41:32+00:00,781297966,780458454,0,InternetArchiveBot,Talk:Libertarianism,Notification of altered sources needing review #IABot (v1.3.2) ([[User:Feminist|Feminist]])
2015-07-16T07:41:30+00:00,671674311,671641119,0,Abierma3,Talk:Libertarianism,/* Has it been tested in reality ? */
2014-03-06T16:52:17+00:00,598419343,598411097,0,JustinTime55,Talk:Libertarianism,"/* Clarifying what Ayn Rand opposed */ Strike out ""political cheerleadin"""
2013-06-15T04:02:10+00:00,559969863,559958277,0,Carolmooredc,Talk:Libertarianism,"/* Addition of two top level tags */ notice at bottom of templates won't be seen by average reader, just interested commentators/editors"
2012-04-01T11:56:36+00:00,484983708,484772750,0,MiszaBot I,Talk:Libertarianism,Archiving 2 thread(s) (older than 21d) to [[Talk:Libertarianism/Archive 31]].
2011-09-12T13:47:24+00:00,450079059,449932167,0,North8000,Talk:Libertarianism,/* Libertarian philosopher/theorists */
2016-04-17T03:06:36+00:00,715643235,715529373,0,Lowercase sigmabot III,Talk:Libertarianism,Archiving 2 discussion(s) to [[Talk:Libertarianism/Archive 40]]) (bot
2022-05-23T14:49:00+00:00,1089394333,1089394051,0,North8000,Talk:Libertarianism,/* Right Libertarianism */ tweak
2009-11-03T02:15:32+00:00,323605043,323600547,0,Born2cycle,Talk:Libertarianism,/* Free market conservatism is not libertarianism */ he agrees
2015-03-30T08:41:44+00:00,654151678,654145903,0,Somedifferentstuff,Talk:Libertarianism,"Oops, the reflist belongs after Mrjulesd's comment. Fixed."
2018-11-07T15:03:00+00:00,867715410,850704930,0,2602:306:CFCE:1EE0:3044:A2C3:2683:987B,Talk:Libertarianism,/* Misleading Pov & ad-like PR. */ new section
2012-03-30T13:08:00+00:00,484691533,484684242,0,L3lackEyedAngels,Talk:Libertarianism,/* Proposed summary and proposed compromise plan - 2 (revised) */
2016-06-14T02:05:09+00:00,725179384,725086286,0,Lowercase sigmabot III,Talk:Libertarianism,Archiving 2 discussion(s) to [[Talk:Libertarianism/Archive 40]]) (bot
2022-06-08T03:00:10+00:00,1092083595,1091942455,0,Lowercase sigmabot III,Talk:Libertarianism,Archiving 2 discussion(s) to [[Talk:Libertarianism/Archive 42]]) (bot
2010-08-18T12:53:02+00:00,379576580,379566517,0,Carolmooredc,Talk:Libertarianism,/* Possible solution to debate over article scope */ two replies
2013-03-13T19:43:58+00:00,543908322,543907689,0,Carolmooredc,Talk:Libertarianism,/* Rewriting sections so about libertarianism */gracias
2007-03-12T16:08:18+00:00,114566666,114455801,0,66.167.22.2,Talk:Libertarianism,
2016-12-27T02:07:33+00:00,756826669,756254280,0,Lowercase sigmabot III,Talk:Libertarianism,Archiving 2 discussion(s) to [[Talk:Libertarianism/Archive 40]]) (bot
2017-11-22T02:25:39+00:00,811508395,811361820,0,Lowercase sigmabot III,Talk:Libertarianism,Archiving 2 discussion(s) to [[Talk:Libertarianism/Archive 41]]) (bot
2017-06-14T02:25:36+00:00,785536078,785053678,0,Lowercase sigmabot III,Talk:Libertarianism,Archiving 3 discussion(s) to [[Talk:Libertarianism/Archive 41]]) (bot
2019-02-21T15:02:54+00:00,884423010,884333021,0,Finx,Talk:Libertarianism,/* Confussion among the words «libertarian» and «libertarianism» */
2019-07-14T14:38:00+00:00,906233358,906147119,0,Dimadick,Talk:Libertarianism,Reverted after deletion. Connections to anarcho-communism discussed in an entire paragraph on the Lede
2018-04-14T07:19:02+00:00,836351020,833523668,0,Lionelt,Talk:Libertarianism,"/* top */assess, Added {{WikiProject Conservatism}} using [[Project:AWB|AWB]]"
2008-05-09T13:10:37+00:00,211249517,211165102,0,Carolmooredc,Talk:Libertarianism,/* Can we please stop changing this article to reflect an American bias? */ where are reliable sources for other contentions?
2008-06-16T14:31:20+00:00,219705723,218465489,0,Carolmooredc,Talk:Libertarianism,/* Bias and lack of world perspective */ only WP:RS sources of left use of libertarian without modifiers is 100 years old; lets see the sources
2010-08-31T03:33:59+00:00,382003446,382003307,0,Carolmooredc,Talk:Libertarianism,/* Trend of RfC */ make clear saying No. 5 in previous post
2019-04-27T02:30:03+00:00,894316781,894231113,0,Lowercase sigmabot III,Talk:Libertarianism,Archiving 2 discussion(s) to [[Talk:Libertarianism/Archive 41]]) (bot
2016-04-16T11:43:28+00:00,715529373,715039612,0,WindWalk55555,Talk:Libertarianism,/* External links modified */
2016-02-29T16:53:53+00:00,707572678,700387409,0,Cyberbot II,Talk:Libertarianism,Notification of altered sources needing review #IABot
2019-03-23T01:04:07+00:00,889040383,884423010,0,95.247.157.16,Talk:Libertarianism,
2010-04-21T15:42:43+00:00,357423045,357422439,0,Darkstar1st,Talk:Libertarianism,/* Problems with recent lead changes */ confusing sources
2013-07-21T02:30:05+00:00,565133505,565104177,0,MiszaBot I,Talk:Libertarianism,Robot: Archiving 2 threads (older than 14d) to [[Talk:Libertarianism/Archive 34]].
2010-05-10T00:16:03+00:00,361176180,360939653,0,Darkstar1st,Talk:Libertarianism,"/* Lead weight */ some editors have confused the term ""property"", as meaning only natural resources, such as land and water."
2011-03-06T09:00:44+00:00,417399925,417259897,0,MiszaBot I,Talk:Libertarianism,Archiving 2 thread(s) (older than 21d) to [[Talk:Libertarianism/Archive 29]].
2017-02-28T00:07:39+00:00,767792765,767455686,0,IWillBuildTheRoads,Talk:Libertarianism,/* Recent edits */Resp
2008-05-25T19:27:04+00:00,214887676,214853093,0,Carolmooredc,Talk:Libertarianism,"/* Libertarian Politics */ If 72.208.191.232 is [[User:Notque]], please sign in"
2007-05-02T19:41:33+00:00,127761665,125929135,0,Mickeyklein,Talk:Libertarianism,
2017-03-08T02:56:05+00:00,769194127,769194048,0,Finx,Talk:Libertarianism,/* Recent edits */
2011-11-10T12:43:11+00:00,459961077,459943216,0,North8000,Talk:Libertarianism,+cmt
2009-09-11T12:49:56+00:00,313180746,312943113,0,Carolmooredc,Talk:Libertarianism,"/* Questionable ""Historically significant social movements of Whichever libertarianism"" Sections */ quick comment on POV/WP:OR"
2017-04-18T12:58:36+00:00,776012451,776008286,0,St. claires fire,Talk:Libertarianism,/* Thin and thick libertarianism */
2016-12-22T02:06:41+00:00,756111019,753771300,0,Lowercase sigmabot III,Talk:Libertarianism,Archiving 2 discussion(s) to [[Talk:Libertarianism/Archive 40]]) (bot
2014-10-30T04:39:52+00:00,631709765,631623105,0,Blue Eyes Cryin,Talk:Libertarianism,/* Please restate or clarify opposition to the above text in bold. */
2010-01-12T13:43:12+00:00,337382881,337382513,0,72.171.0.147,Talk:Libertarianism,
2012-08-10T20:35:44+00:00,506783442,506781821,0,72.182.15.249,Talk:Libertarianism,/* On the inclusion of the US Libertarian Party views in the Introduction */
2018-07-17T15:32:53+00:00,850704930,847264231,0,Aquillion,Talk:Libertarianism,/* Lead fails verification */
2009-01-19T18:31:07+00:00,265121599,264167680,0,Carolmooredc,Talk:Libertarianism,"/* Strange Cato-derived lead */ most recent version looks good, balanced per WP:LEAD"
2010-02-05T20:16:47+00:00,342156556,341503283,0,Carolmooredc,Talk:Libertarianism,[[WP:UNDO|Undid]] revision 341503283 by [[Special:Contributions/Trust Is All You Need|Trust Is All You Need]] ([[User talk:Trust Is All You Need|talk]])questionable change protested elsewhere too
2012-05-04T11:01:57+00:00,490616309,490568036,0,North8000,Talk:Libertarianism,/* Building off an Abandoned Page (?) */
2017-07-06T06:45:00+00:00,789242555,732846842,0,Pellea72,Talk:Mad (magazine),"complaint about ""Foreign Editions as of 2016"" and ""Past foreign editions"" sections"
2012-08-26T18:25:46+00:00,509287478,478768346,0,LorenzoB,Talk:Mad (magazine),Copy edit - proposal for removal
2011-02-05T16:41:51+00:00,412173694,379937175,0,79.159.81.119,Talk:Mad (magazine),
2016-08-03T16:51:42+00:00,732846842,728284386,0,ClueBot III,Talk:Mad (magazine),Archiving 1 discussion to [[Talk:Mad (magazine)/Archive 2]]. (BOT)
2007-04-19T22:18:37+00:00,124203303,124199625,0,Dryfee,Talk:Mainstream economics,Is Ausrian Economics Really Heterodox???
2010-04-09T22:13:05+00:00,355029890,355029845,0,SineBot,Talk:Mainstream economics,"Signing comment by [[Special:Contributions/63.255.214.2|63.255.214.2]] - ""/* Nothingness award of the week */ new section"""
2012-07-29T06:44:29+00:00,504713705,504713615,0,SineBot,Talk:Mainstream economics,"Dating comment by [[Special:Contributions/137.205.131.69|137.205.131.69]] - """""
2018-01-13T11:03:13+00:00,820160803,762552939,0,InternetArchiveBot,Talk:Mainstream economics,Notification of altered sources needing review #IABot (v1.6.1)
2020-09-05T10:04:43+00:00,976837879,976837836,0,VineFynn,Talk:Mainstream economics,
2011-02-14T11:02:56+00:00,413858706,413858674,0,72.228.177.92,Talk:Mainstream economics,/* The real and traditional distinction. */
2019-02-12T09:40:15+00:00,882947402,819174418,0,GreenC bot,Talk:Malinvestment,Add {{[[Template:reflist-talk|reflist-talk]]}} to [[Talk%3AMalinvestment#John%20Stuart%20Mill%20vs%2E%20John%20Mills|#John Stuart Mill vs. John Mills]] (via [[User:GreenC bot/Job 8|reftalk]] bot)
2022-03-31T13:05:07+00:00,1080304749,1076446688,0,WOSlinkerBot,Talk:Malinvestment,Fix misnested tag [[Special:LintErrors/misnested-tag|lint errors]]
2014-06-19T20:52:31+00:00,613605974,591284147,0,Srich32977,Talk:Malinvestment,Discretionary sanctions
2011-07-21T16:51:44+00:00,440679996,440679947,0,Jive Dadson,Talk:Malinvestment,/* Rewriting with NPOV for minority theories */
2009-08-01T18:19:34+00:00,305494272,0,0,Cretog8,Talk:Malinvestment,WikiProject Economics
2010-10-05T09:19:26+00:00,388860649,386907246,0,Pestergaines,Talk:Malinvestment,/* Rewriting with NPOV for minority theories */ new section
2018-01-07T22:05:47+00:00,819174418,613605974,0,Srich32977,Talk:Malinvestment,DS no longer applicable to this topic (Austrian Economics)
2009-05-14T06:14:48+00:00,289827891,288662237,0,ListasBot,Talk:Mamdouh Habib,"Added listas to WPBiography (used DEFAULTSORT from article), applied fixes to WPBiography template. [[User talk:ListasBot|Did I get it wrong?]]"
2013-01-26T15:43:36+00:00,534996316,512797255,0,Parkwells,Talk:Mamdouh Habib,"/* non-divulged evidence has ""no value""? */ Habib's account supported - how to achieve balance?"
2014-10-09T00:05:00+00:00,628858157,628424186,0,Lowercase sigmabot III,Talk:Milton Friedman,Archiving 2 discussion(s) to [[Talk:Milton Friedman/Archive 4]]) (bot
2015-12-15T14:14:42+00:00,695357268,675833618,0,Bonewah,Talk:Milton Friedman,"/* Lucas, New Classic economics etc */ new section"
2009-05-19T14:58:45+00:00,290956247,290921116,0,Gregalton,Talk:Monetary reform,Rvt sockmaster
2016-01-06T17:48:57+00:00,698525358,698525264,0,90.74.246.9,Talk:Monetary inflation,Peter Praet
2014-04-06T18:28:47+00:00,603039061,603035201,0,Jonpatterns,Talk:Monetary reform,/* Positive Money */
2018-09-13T16:06:43+00:00,859368632,859364605,0,Bolarno,Talk:Monetary reform,/* Do we need a history section? */
2011-10-02T11:35:40+00:00,453515823,442795467,0,Diza,Talk:Monetary reform,"/* Bold, or evolution interrupted? */"
2012-12-01T01:17:43+00:00,525789765,453515823,0,Mats33,Talk:Monetary reform,/* Monetary reform vs currency reform */ new section
2013-09-02T16:01:33+00:00,571240487,570825825,0,Brandsby,Talk:Monetary reform,/* Positive Money */
2016-06-27T18:23:58+00:00,727250604,603039061,0,ExpertIdeasBot,Talk:Monetary reform,ExpertIdeasBot-changing
2007-03-17T02:55:34+00:00,115707901,113963394,0,Searchme,Talk:Monetary reform,cut {{Numismaticnotice}}
2010-02-20T13:09:11+00:00,345208616,345208525,0,SineBot,Talk:Monetary reform,"Signing comment by [[User:0WhatWhat0|0WhatWhat0]] - """""
2010-07-17T06:29:12+00:00,373934810,373875992,0,Equilibrium007,Talk:Monetary reform,"/* Does ""debt-free"" mean anything? */"
2011-02-24T15:15:26+00:00,415698618,392663269,0,Janosabel,Talk:Monetary reform,"/* NESARA */ changed ""likely"" to ""probably"
2009-02-14T08:19:15+00:00,270624950,270608673,0,John Quiggin,Talk:Monetary reform,[[WP:UNDO|Undid]] revision 270608673 by [[Special:Contributions/PyramidsOrFood?|PyramidsOrFood?]] ([[User talk:PyramidsOrFood?|talk]])
2018-02-04T11:23:40+00:00,823947022,805011962,0,InternetArchiveBot,Talk:Monetary reform,Notification of altered sources needing review #IABot (v1.6.2)
2007-11-02T21:58:10+00:00,168818920,154563766,0,Gregbard,Talk:Monetary reform,ethics  using [[Project:AutoWikiBrowser|AWB]]
2007-11-08T23:53:58+00:00,170209668,170207440,0,Lester,Talk:Muhamed Haneef,/* Amusing aside. */ Gold Coast plot mentioned
2018-02-07T18:13:06+00:00,824494609,759563384,0,InternetArchiveBot,Talk:Muhamed Haneef,Notification of altered sources needing review #IABot (v1.6.2)
2008-12-29T14:31:49+00:00,260675994,247485432,0,TinucherianBot,Talk:Muhamed Haneef,[[WP:INDIA]] Tagging ! ( [[WP:BOTFAQ|FAQ]] )
2012-09-20T12:22:10+00:00,513697856,482005228,0,Yobot,Talk:Muhamed Haneef,WPBIO banner fixes + cleanup (Task: 17) using [[Project:AWB|AWB]] (8423)
2007-04-20T00:04:14+00:00,124227046,0,0,Dryfee,Talk:Neo-Keynesian economics,[[WP:AES|←]]Created page with '{{WikiProject Economics|class=|importance=}}'
2020-02-06T14:48:12+00:00,939446399,939446308,0,Yug,Talk:Neo-Keynesian economics,/* This article needs some love ! */
2009-05-16T03:24:32+00:00,290230961,285872403,0,Lawrencekhoo,Talk:Neo-Keynesian economics,evaluation for Econ wikiproject
2011-06-08T15:05:02+00:00,433218302,349641637,0,Assistancefromheaven,Talk:Neo-Keynesian economics,
2021-09-08T01:05:54+00:00,1043032627,1043032491,0,Encyclopedia Lu,Talk:Paul Krugman,Belatedly added digital signature.
2013-11-08T08:15:45+00:00,580724971,580284020,0,Darkstar1st,Talk:Paul Krugman,/* 40th most influential what? */
2015-08-17T15:16:02+00:00,676524254,614560722,0,Yobot,Talk:Paul Krugman,plain priority parameter removed/fixed using [[Project:AWB|AWB]] (11382)
2006-05-28T21:41:35+00:00,55632264,55622260,0,Incorrect,Talk:Paul Krugman,/* Liberal tag */
2017-01-09T03:04:52+00:00,759078755,759024383,0,Lowercase sigmabot III,Talk:Peter Schiff,Archiving 2 discussion(s) to [[Talk:Peter Schiff/Archive 2]]) (bot
2011-06-15T15:16:14+00:00,434422659,426002895,0,Yobot,Talk:Peter Schiff,Updated banner using [[Project:AWB|AWB]] (7758)
2013-07-01T19:28:39+00:00,562438242,394970722,0,Rjlabs,Talk:Systemic risk,"Zheng, Feng, Li (2012)"
2020-09-27T15:31:26+00:00,980628248,980628102,0,SineBot,Talk:Systemic risk,"Signing comment by [[Special:Contributions/188.252.199.189|188.252.199.189]] - ""/* Zheng, Feng, Li (2012) */"""
2009-04-11T13:07:18+00:00,283168631,283168487,0,SineBot,Talk:Systemic risk,"Signing comment by [[Special:Contributions/69.121.221.97|69.121.221.97]] - ""/* Systemic Risk, AIG and Babble */ ed"""
2009-11-23T17:15:54+00:00,327500693,314516855,0,2over0,Talk:Systemic risk,/* Definition? */ new section
2010-11-05T12:06:14+00:00,394970722,394970272,0,Adefeowiki,Talk:Systemic risk,/* Opinion and Conjecture */ Forgot to sign the section...I am the author.
2013-08-05T18:02:54+00:00,567289803,540890395,0,Mika1h,Tash (Narnia),+cat
2021-02-13T21:22:43+00:00,1006617288,998167014,0,Procyonidae,Tash (Narnia),linking taş
2006-11-23T05:19:43+00:00,89597552,89597513,0,3dom,Ted Kaczynski,/* References */
2022-04-25T12:17:47+00:00,1084592053,1082675090,0,Yamla,Ted Kaczynski,Reverted edits by [[Special:Contribs/ManOfTheHeavyBack|ManOfTheHeavyBack]] ([[User talk:ManOfTheHeavyBack|talk]]) to last version by Muboshgu
2013-02-23T03:12:07+00:00,539835101,497681990,0,TonyTheTiger,Template:Brisbane bridges navigation,adding {{collapsible option}} and/or {{{state}}}
2007-08-18T05:40:28+00:00,151984544,145914029,0,CapitalR,Template:Brisbane bridges navigation,Upgrading to Navbox using [[Wikipedia:AutoWikiBrowser|AWB]]
2015-10-05T03:45:18+00:00,684190307,678141482,0,MaxBrowne,Terry Sejnowski,/* Biography */ Not a credible biography (wikipedia dump)
2012-11-01T18:02:19+00:00,520929067,520925257,0,Legobot,Terry Sejnowski,BOT: Dating templates: {{citation needed}} (1). Errors? [[User:Legobot/Stop/II 2|stop me]]
2009-05-15T14:25:41+00:00,290099034,290098918,0,ACSE,Thaksin Shinawatra,[[WP:UNDO|Undid]] revision 290098918 by [[Special:Contributions/70.246.59.244|70.246.59.244]] ([[User talk:70.246.59.244|talk]])
2019-05-14T15:14:27+00:00,897065701,897013129,0,Monkbot,Thaksin Shinawatra,/* Political career */[[User:Monkbot/task_13: remove replace deprecated subscription registration parameters|Task 13]]: Fix deprecated |subscription= in cs1|2 templates;
2012-11-26T20:30:16+00:00,525011377,523898348,0,MMK623,The Chicks,reverted bad edits where anonymous user deleted 3 early albums
2016-11-15T04:59:59+00:00,749597047,747646104,0,76.71.5.45,The Chicks,/* 2001–02: Record label dispute and Home */ 2003-05 material does not belong in 2001-02 section; add a section
2022-08-28T17:07:31+00:00,1107186763,1107186648,0,2600:8800:D00:7A0:0:0:0:CF8C,The Chicks,/* 1989–1995: Original bluegrass group */
2018-10-17T22:14:11+00:00,864543690,864263115,0,Amstaton,The Chicks,/* 2016–present: MMXVI World Tour and new management */
2019-07-30T14:43:35+00:00,908565145,908563446,0,StarTrekker,The Creeper (Jeepers Creepers),
2007-07-25T17:38:01+00:00,147033514,147033472,0,70.168.109.237,The Creeper (Jeepers Creepers),/* Appearance */
2007-07-09T00:15:35+00:00,143393435,138104614,0,STBotD,The Discovery of America by Christopher Columbus,robot  Adding: [[pt:A Descoberta da América por Cristóvão Colombo]]
2011-04-24T13:00:25+00:00,425656387,413079725,0,Shaidar cuebiyar,The Masters Apprentices,Top 40 on [[100 Best Australian Albums]]
2016-06-22T17:04:37+00:00,726510159,710421549,0,WereSpielChequers,The Discovery of America by Christopher Columbus,"/* Description */[[WP:AWB/T|Typo fixing]], replaced: the for  →  for the using [[Project:AWB|AWB]]"
2019-08-16T00:10:52+00:00,911008354,904028041,0,Riotman70,The Masters Apprentices,
2020-10-15T07:21:30+00:00,983615134,982791819,0,79.66.60.181,The Prodigy,Added new image with close ups
2009-01-26T19:12:42+00:00,266580333,266528168,0,202.162.66.2,The Prodigy,
2019-10-04T02:03:13+00:00,919500142,878408723,0,Cobaltcigs,The Transformation of the World into Music,lang
2007-09-12T18:45:11+00:00,157434838,150543725,0,Alaibot,The Transformation of the World into Music,Robot: sorting stub (based on existing categorisation)
2010-01-26T07:24:00+00:00,340090021,340089927,0,Snake-eyes,The Willow Tree (novel),internal link
2019-04-11T08:07:06+00:00,891960018,874955601,0,Kjell Knudde,The Wonderful Horrible Life of Leni Riefenstahl,Added more categories.
2011-03-22T13:14:11+00:00,420141794,399964882,0,112.213.195.245,The Wonderful Horrible Life of Leni Riefenstahl,/* Release and Awards */ capital
2019-09-29T20:15:20+00:00,918670985,913801631,0,Monkbot,Tim Lopes (journalist),/* top */[[User:Monkbot/task 16: remove replace deprecated dead-url params|Task 16]]: replaced (1×) / removed (0×) deprecated |dead-url= and |deadurl= with |url-status=;
2008-10-13T01:00:18+00:00,244887777,243245085,0,Lightmouse,Transmission Voie-Machine,Date links per [[wp:mosnum]]/Other  using [[Project:AutoWikiBrowser|AWB]]
2010-07-30T21:56:17+00:00,376329707,372790617,0,Victor Lopes,Tim Lopes (journalist),Adding category [[:Category:Murdered journalists]] (using [[WP:HOTCAT|HotCat]])
2014-06-16T22:06:09+00:00,613200582,610131001,0,Fyrael,Transmission Voie-Machine,Disambiguating links to [[Vent]] (link changed to [[Flue]]) using [[User:Qwertyytrewqqwerty/DisamAssist|DisamAssist]].
2011-04-16T16:16:56+00:00,424385727,423489287,0,LondonYoung,United States Note,appositives should be bracketed by commas say Strunk and White
2010-04-18T23:17:24+00:00,356876582,356737911,0,LondonYoung,United States Note,/* The Legal Tender Acts */
2012-04-06T10:27:50+00:00,485874999,485801177,0,Steven Crossin,User talk:Andrewedwardjudd,[[Help:Reverting|Reverted]] edits by [[Special:Contributions/SteveBot|SteveBot]] ([[User talk:SteveBot|talk]]) to last version by Dougweller
2017-08-25T02:46:28+00:00,797123814,796722708,0,AnomieBOT,User talk:Andrewedwardjudd,[[User:AnomieBOT/docs/TemplateSubster|Substing templates]]: {{Investment ad}}. See [[User:AnomieBOT/docs/TemplateSubster]] for info.
2018-11-20T00:21:03+00:00,869673932,776099273,0,MediaWiki message delivery,User talk:BigK HeX,/* ArbCom 2018 election voter message */ new section
2017-04-18T23:42:49+00:00,776099273,692208529,0,PrimeBOT,User talk:BigK HeX,/* The WikiProject: Good Articles ''Newsletter'' (December 2012) */fix double Wikipedia namespace link - [[Wikipedia:Bots/Requests for approval/PrimeBOT 14|BRFA]]
2014-09-15T19:04:21+00:00,625702837,623623665,0,MediaWiki message delivery,User talk:BigK HeX,/* WikiProject Good Articles - GA Cup */ new section
2022-04-19T14:19:48+00:00,1083571461,1077642014,0,MalnadachBot,User talk:BigK HeX,Fixed [[WP:LINT|Lint errors]]. ([[User:MalnadachBot/Task 12|Task 12]])
2008-02-11T17:46:49+00:00,190663075,190662015,0,BigK HeX,User talk:BigK HeX,/* A suggestion regarding your merger proposal */
2014-03-01T21:01:01+00:00,597718378,596569816,0,MediaWiki message delivery,User talk:BigK HeX,/* GAN March 2014 Backlog Drive */ new section
2010-03-04T14:52:53+00:00,347713125,347608230,0,Hodja Nasreddin,User talk:BigK HeX,/* Hi */
2011-11-16T05:32:38+00:00,460902321,451918991,0,Srich32977,User talk:BigK HeX,/* PA */ new section
2022-03-15T18:53:16+00:00,1077322591,1074749534,0,MalnadachBot,User talk:BlueRobe,Fixed [[WP:LINT|Lint errors]]. ([[User:MalnadachBot/Task 12|Task 12]])
2011-02-05T05:40:53+00:00,412108500,403120128,0,Gadfium,User talk:BlueRobe,/* For reference */ another IP address
2010-03-07T07:28:17+00:00,348284881,344656464,0,SineBot,User talk:BlueRobe,Added {{tilde}} note.
2008-06-14T15:52:49+00:00,219301750,209554520,0,EEMIV,User talk:Byelf2007,Notice: Incorrect use of minor edits check box. ([[WP:TW|TW]])
2018-01-15T21:28:50+00:00,820654559,813503747,0,Ghmyrtle,User talk:Cameron Scott,/* The Guardian */ new section
2014-07-29T18:15:11+00:00,619007506,589922628,0,Binksternet,User talk:Byelf2007,"/* You have been active at the article or talk page, so here's a note about Anarcho-capitalism */ new section"
2011-03-21T16:08:45+00:00,419988517,417924994,0,69.156.88.229,User talk:Cameron Scott,/* use of keep */
2013-01-03T14:37:14+00:00,531091744,526316518,0,EdwardsBot,User talk:BigK HeX,/* The WikiProject: Good Articles Newsletter (January 2013) */ new section
2007-03-02T22:41:59+00:00,112184999,111797373,0,Carolmooredc,User talk:Carolmooredc,/* Jose Rodriguez restored */ reply
2015-12-14T12:06:02+00:00,695196298,695195815,0,Carolmooredc,User talk:Carolmooredc,/* You haven't been forgotten */ ce
2016-06-25T10:43:37+00:00,726928508,714650175,0,Puffin,User talk:Chemicalinterest,Notification: [[WP:G13|G13]] speedy deletion nomination of [[Draft:Sodium tellurate]] ([[WP:AFCH|AFCH]] 0.9)
2022-04-19T14:56:04+00:00,1083576883,1079366261,0,MalnadachBot,User talk:Chemicalinterest,Fixed [[WP:LINT|Lint errors]]. ([[User:MalnadachBot/Task 12|Task 12]])
2009-04-18T14:32:11+00:00,284620889,284611876,0,Tinucherian,User talk:Coren,/* CorenSearchBot issue */ Thanks a lot.
2014-06-14T23:09:19+00:00,612945982,612770169,0,Lowercase sigmabot III,User talk:Coren,Archiving 2 discussion(s) to [[User talk:Coren/Archives/2014/June]]) (bot
2016-05-17T01:14:40+00:00,720630502,720627516,0,Lowercase sigmabot III,User talk:Coren,Archiving 2 discussion(s) to [[User talk:Coren/Archive/2016/March]]) (bot
2013-08-14T14:07:22+00:00,568509564,568202479,0,MiszaBot III,User talk:Coren,"Robot: Archiving 2 threads (older than 3d) to [[User talk:Coren/Archives/2013/July]], [[User talk:Coren/Archives/2013/August]]."
2013-04-18T13:43:50+00:00,550974961,550276994,0,Sfan00 IMG,User talk:Cretog8,Notification: listing at [[WP:FFD|files for deletion]] of [[File:DeBloafered Bids.png]]. ([[WP:TW|TW]])
2015-02-26T03:12:32+00:00,648884734,648884497,0,Darkstar1st,User talk:Darkstar1st,/* AN */thx
2006-06-13T01:21:27+00:00,58308979,58291416,0,69.245.59.186,User talk:Darkstar1st,/* Password */ ty
2011-05-22T10:05:20+00:00,430324540,430323818,0,Darkstar1st,User talk:Darkstar1st,/* 1RR again */ (Result: Withdrawn )
2018-11-20T00:29:00+00:00,869683347,869682230,0,MediaWiki message delivery,User talk:Darkstar1st,/* ArbCom 2018 election voter message */ new section
2012-11-08T11:10:20+00:00,521981763,521978730,0,Darkstar1st,User talk:Darkstar1st,/* Edit warring */ a rather curious revert as the very same information has existed for years on the larger article about [[Nazi economy]]
2011-01-27T00:48:08+00:00,410276519,410275346,0,Darkstar1st,User talk:Darkstar1st,/* Headings */
2013-06-01T15:01:45+00:00,557840177,557352261,0,Callanecc,User talk:Darkstar1st,/* Wikipedia:Arbitration/Requests/Case/Tea Party movement suspended */ new section
2016-12-15T17:38:51+00:00,754994857,754982458,0,Darkstar1st,User talk:Darkstar1st,/* Socialism */ i look forward to seeing the article improved and replace weasel words with those of RS.
2018-03-30T22:12:59+00:00,833329211,833315776,0,Darkstar1st,User talk:Darkstar1st,/* Thanks */
2018-07-09T09:27:01+00:00,849481431,845531606,0,MediaWiki message delivery,User talk:Darkstar1st,/* The Right Stuff: July 2018 */ new section
2022-03-18T17:12:40+00:00,1077872660,869683347,0,MalnadachBot,User talk:Darkstar1st,Fixed [[WP:LINT|Lint errors]]. ([[User:MalnadachBot/Task 12|Task 12]])
2013-02-15T04:47:18+00:00,538352444,538284829,0,Srich32977,User talk:Darkstar1st,/* ANI */ygm
2017-12-03T20:52:55+00:00,813495474,803465345,0,MediaWiki message delivery,User talk:Darkstar1st,/* ArbCom 2017 election voter message */ new section
2017-10-02T18:24:03+00:00,803465345,754994857,0,GreenC bot,User talk:Darkstar1st,1 dispenser.homenet.org URL deleted due to domain hijacking by squatters ([[Special:Permalink/803299516#Remove_links_from_user_talk_pages_to_domain_squatter|discussion]])
2016-01-08T02:30:34+00:00,698762850,698727295,0,Darkstar1st,User talk:Darkstar1st,/* Socialism */ do you suppose the majority of socialist believe in less than 51% public ownership?
2013-11-16T08:17:58+00:00,581881907,575007596,0,Legobot,User talk:Darkstar1st,Robot: Archiving 1 thread (older than 61d) to [[User talk:Darkstar1st/Archive 1]].
2013-08-02T14:16:29+00:00,566858162,566361584,0,MiszaBot III,User talk:Darkstar1st,Robot: Archiving 1 thread (older than 61d) to [[User talk:Darkstar1st/Archive 1]].
2010-11-12T22:04:33+00:00,396395860,396293326,0,MuZemike,User talk:DataDarkLBMA,Indefinitely blocked as a sock puppet
2010-09-22T18:57:37+00:00,386375147,386052326,0,Atama,User talk:DebtDukkha,Redirecting to user page per [[WP:SPI/AI]]
2013-08-12T20:37:39+00:00,568260922,566663549,0,RL0919,User talk:DickClarkMises,/* GA reassessment for Murray Rothbard article */ new section
2011-05-27T12:24:51+00:00,431169129,430731857,0,Nyttend,User talk:DickClarkMises,/* File:Edward ellis.jpg */ new section
2018-11-20T00:33:10+00:00,869688568,869687085,0,MediaWiki message delivery,User talk:DickClarkMises,/* ArbCom 2018 election voter message */ new section
2021-11-23T00:08:09+00:00,1056650048,1051288689,0,MediaWiki message delivery,User talk:DickClarkMises,/* ArbCom 2021 Elections voter message */ new section
2008-09-06T19:58:35+00:00,236714574,235697771,0,Gregalton,User talk:EGeek,/* Ongoing work on inflation */ new section
2015-11-23T17:35:44+00:00,692074235,236714574,0,MediaWiki message delivery,User talk:EGeek,/* ArbCom elections are now open! */ new section
2010-09-04T06:01:40+00:00,382822391,376242412,0,Hersfold,User talk:Eric155,CU confirmed sock of [[User:Karmaisking]]
2008-02-12T06:28:14+00:00,190847900,182037784,0,BigK HeX,User talk:Gantlord,/* Once upon a time... */ new section
2010-05-27T18:21:23+00:00,364521104,364481853,0,Satori Son,User talk:GodSaysNoMore,redirect
2009-04-27T06:11:11+00:00,286386678,286160886,0,PMDrive1061,User talk:GoldToTheMoonAlice,/* sockpuppet */
2010-05-20T18:01:23+00:00,363237846,286386678,0,Satori Son,User talk:GoldToTheMoonAlice,redirect
2007-09-21T09:59:35+00:00,159357670,159346865,0,32F,User talk:Gregalton,/* Debt-based money */
2009-05-21T14:04:20+00:00,291400980,290715380,0,MiszaBot III,User talk:Gregalton,Archiving 2 thread(s) (older than 120d) to [[User talk:Gregalton/Archive 3]].
2008-04-13T14:04:12+00:00,205327462,204735434,0,ForteTuba,User talk:Gregalton,Manually post SuggestBot suggestions.
2015-11-23T13:59:56+00:00,692025000,291400980,0,MediaWiki message delivery,User talk:Gregalton,/* ArbCom elections are now open! */ new section
2017-12-04T05:31:38+00:00,813585252,813495955,0,Lowercase sigmabot III,User talk:Gregalton,Archiving 2 discussion(s) to [[User talk:Gregalton/Archive 3]]) (bot
2008-04-27T13:25:37+00:00,208519329,207616336,0,MiszaBot III,User talk:Gregalton,Archiving 2 thread(s) (older than 90d) to [[User talk:Gregalton/Archive 2]].
2008-06-19T17:35:59+00:00,220396139,220395788,0,Satori Son,User talk:Gregalton,"/* Hey, don't give up! */  whoops"
2008-04-29T13:26:01+00:00,208989138,208519329,0,MiszaBot III,User talk:Gregalton,Archiving 2 thread(s) (older than 90d) to [[User talk:Gregalton/Archive 2]].
2008-03-08T08:42:30+00:00,196725340,196637597,0,Gregalton,User talk:Gregalton,/* Empirical data on ABCT? */
2009-01-25T13:55:31+00:00,266312571,266204404,0,MiszaBot III,User talk:Gregalton,Archiving 2 thread(s) (older than 120d) to [[User talk:Gregalton/Archive 3]].
2008-02-16T19:32:27+00:00,191906711,191905283,0,Hauskalainen,User talk:Gregalton,/* Good job!!! */
2021-04-02T06:59:55+00:00,1015570928,996986296,0,Marcocapelle,User talk:John Quiggin,"Notification: [[Wikipedia:Categories for discussion/Log/2021 April 2#Category:Information, knowledge, and uncertainty|listing]] of [[:Category:Information, knowledge, and uncertainty]] at [[WP:Categories for discussion]]."
2012-08-12T11:46:32+00:00,507026805,306945102,0,Lawrencekhoo,User talk:Karmaisking,/* Sockpuppets */ fix link
2007-12-10T22:00:47+00:00,177075723,176934514,0,Yilloslime,User talk:John Quiggin,Split up [[DDT]]?
2009-08-09T08:58:05+00:00,306945102,295182248,0,Lawrencekhoo,User talk:Karmaisking,/* Sockpuppets */
2008-02-15T23:04:11+00:00,191743652,191435112,0,Kaiba,User talk:Karmaisking,indefblocked redirect
2008-11-22T04:40:13+00:00,253333833,253331993,0,Jayron32,User talk:Karmaisking,Reverted edits by [[Special:Contributions/Monsieur Manny|Monsieur Manny]] ([[User talk:Monsieur Manny|talk]]) to last version by Jayron32
2009-06-08T15:10:18+00:00,295182248,293924813,0,NJA,User talk:Karmaisking,Protected User talk:Karmaisking: Banned user's page edited randomly by its continued socks. Any contestation can be done by emailing arbcom. ([edit=autoconfirmed] (indefinite) [move=autoconfirmed] (indefinite))
2009-02-05T10:10:46+00:00,268662906,268662739,0,Lawrencekhoo,User talk:Karmaisking,/* Sockpuppets */
2008-08-18T03:59:19+00:00,232615370,232587676,0,Gregalton,User talk:Kjkkkjj,[[WP:UNDO|Undid]] revision 232587676 by [[Special:Contributions/122.148.176.80|122.148.176.80]] ([[User talk:122.148.176.80|talk]])
2010-12-12T01:58:32+00:00,401877377,211446515,0,Jayjg,User talk:Lagrandebanquesucre,Proposed deletion of [[Stephen Zarlenga]]. ([[WP:TW|TW]])
2016-11-25T11:19:45+00:00,751396192,751238124,0,MediaWiki message delivery,User talk:Lawrencekhoo,/* Roll call of WikiProject Malaysia for 2017 */ new section
2019-03-18T00:36:21+00:00,888263540,877143459,0,Calton,User talk:Lawrencekhoo,/* Modern Monetary Theory */ new section
2007-11-04T04:17:16+00:00,169091788,169091684,0,Luna Santin,User talk:Luna Santin,/* Hey Thanks! */ reply
2020-12-26T16:12:12+00:00,996434187,978815863,0,LaundryPizza03,User talk:Luna Santin,Notification: [[Wikipedia:Templates for discussion/Log/2020 December 26#Template:Range|listing]] of [[:Template:Range]] at [[WP:Templates for discussion]].
2018-07-26T16:22:56+00:00,852098082,814602808,0,Enigmaman,User talk:Luna Santin,/* We miss you :D */  add
2010-09-20T22:23:55+00:00,385996615,384642176,0,EdwardsBot,User talk:Luna Santin,/* The Signpost: 20 September 2010 */ new section
2022-06-30T00:27:47+00:00,1095723007,1095719607,0,Bbb23,User talk:Luna Santin,Reverted edits by [[Special:Contribs/History Buff1239ubj|History Buff1239ubj]] ([[User talk:History Buff1239ubj|talk]]) to last version by MalnadachBot
2015-11-24T13:55:43+00:00,692216217,451019005,0,MediaWiki message delivery,User talk:Misessus,/* ArbCom elections are now open! */ new section
2011-09-17T19:30:44+00:00,451019005,451018625,0,Misessus,User talk:Misessus,/* Don't use WP */
2008-11-17T21:24:30+00:00,252439743,252439446,0,NJGW,User talk:NJGW/5,move archive box to main page
2008-07-10T14:20:56+00:00,224805022,224204812,0,Mac,User talk:NJGW/5,/* Bioasphalt */ new section
2022-05-16T23:02:02+00:00,1088241335,1077912141,0,MalnadachBot,User talk:NJGW/5,Fixed [[WP:LINT|Lint errors]]. ([[User:MalnadachBot/Task 12|Task 12]])
2010-08-17T13:00:55+00:00,379393755,379372694,0,114.73.150.2,User talk:Pestergaines,"/* I need a favor, could you assist? */"
2010-05-20T18:26:30+00:00,363242163,362598434,0,Satori Son,User talk:QE2Infinity!,redirect
2021-10-05T10:31:52+00:00,1048315648,253037172,0,MalnadachBot,User talk:Ron Paul...Ron Paul...,Fixed [[WP:LINT|Lint errors]] in signatures. ([[User:MalnadachBot/Task 2|Task 2]])
2008-11-20T19:28:33+00:00,253037172,252591727,0,MastCell,User talk:Ron Paul...Ron Paul...,"rm tags; sock, blocked, tags are on userpage"
2008-07-09T15:23:52+00:00,224588316,224502714,0,RubyJester,User talk:RubyJester,
2017-07-25T14:43:25+00:00,792266580,784710719,0,Satori Son,User talk:Satori Son,/* Orphaned non-free image File:SWAN Podcast Logo.jpg */  [[Wikipedia:Articles for deletion/Star Wars Action News (3rd nomination)]]
2018-11-20T00:40:29+00:00,869698114,813472647,0,MediaWiki message delivery,User talk:Satori Son,/* ArbCom 2018 election voter message */ new section
2017-09-25T09:02:59+00:00,802303399,800647288,0,ShakespeareFan00,User talk:Satori Son,
2007-05-08T06:37:46+00:00,129174004,128238632,0,Ralbot,User talk:Satori Son,Signpost delivery  using [[Project:AWB|AWB]]
2015-11-23T13:54:17+00:00,692020489,656341732,0,MediaWiki message delivery,User talk:Satori Son,/* ArbCom elections are now open! */ new section
2010-04-29T15:02:36+00:00,359069402,358947176,0,Satori Son,User talk:Satori Son,/* Possible changes to your discussion text at Wikipedia:Articles for deletion/Zamora (musician) */  reply
2011-01-07T02:08:20+00:00,406405147,406132398,0,BrownBot,User talk:Satori Son,/* WikiXDC: Wikipedia 10th Birthday! */ new section
2021-09-11T14:39:55+00:00,1043706145,990331623,0,PrimeBOT,User talk:Satori Son,[[User:PrimeBOT/24|Task 24]]: removal of a template following [[Wikipedia:Templates_for_discussion/Log/2021_August_16|a TFD]]
2013-10-22T17:00:57+00:00,578284683,576232911,0,Vanished user 201913,User talk:Satori Son,/* A kitten for you! */ new WikiLove message
2015-12-23T22:41:12+00:00,696549619,677216466,0,Pine,User talk:Skomorokh,/* Merry Christmas and happy new year */ new section
2006-05-06T17:26:43+00:00,51853464,51801026,0,ZsinjBot,User talk:Satori Son,Template substitution + cleanup  using [[Wikipedia:AutoWikiBrowser|AWB]]
2012-03-19T23:02:52+00:00,482801913,482801349,0,Jac16888,User talk:Smith'sFistUpGoldman'sMuppet,decline unblock request
2011-05-05T16:31:02+00:00,427603628,427602886,0,Skomorokh,User talk:Skomorokh,"see editnotice, spam not welcome"
2011-01-09T02:38:16+00:00,406799271,382334049,0,TastyPoutine,User talk:TastyPoutine,rm spam
2006-11-08T02:12:44+00:00,86408833,86400303,0,Buchanan-Hermit,User talk:TastyPoutine,Reverted edits by [[Special:Contributions/24.52.114.146|24.52.114.146]] ([[User talk:24.52.114.146|talk]]) to last version by Montco
2021-05-11T19:31:29+00:00,1022661393,1013353919,0,Yapperbot,User talk:TastyPoutine,"[[WP:FRS|Feedback Request Service]] notification on a ""Society, sports, and culture"" request for comment (1/5 this month). You can unsubscribe at [[WP:FRS]]."
2017-12-11T05:38:51+00:00,814835017,814252830,0,Dicklyon,User talk:TastyPoutine,/* Tasty */ new section
2008-03-22T19:21:48+00:00,200127869,200126668,0,TastyPoutine,User talk:TastyPoutine,
2014-06-19T08:55:33+00:00,613537172,611683914,0,DPL bot,User talk:TastyPoutine,dablink notification message (see the [[User:DPL bot/Dablink notification FAQ|FAQ]])
2009-07-07T20:45:05+00:00,300863989,300863745,0,SineBot,User talk:TastyPoutine,"Signing comment by [[User:Leontaurus|Leontaurus]] - """""
2019-12-15T04:23:15+00:00,930820627,930108590,0,Legobot,User talk:TastyPoutine,/* Please comment on Talk:Peter Arnett */ new section
2007-12-02T08:12:50+00:00,175223313,174583255,0,TastyPoutine,User talk:TastyPoutine,cleanup
2009-07-15T16:14:03+00:00,302243301,302243094,0,SineBot,User talk:TastyPoutine,"Signing comment by [[User:Thedubaipost|Thedubaipost]] - ""/* It was not a spam link */"""
2019-06-24T04:23:24+00:00,903187442,902182925,0,Legobot,User talk:TastyPoutine,/* Please comment on Talk:List of French supercentenarians */ new section
2006-05-02T16:31:21+00:00,51222803,51163864,0,TastyPoutine,User talk:TastyPoutine,
2012-12-24T17:13:03+00:00,529621070,522246057,0,TastyPoutine,User talk:TastyPoutine,/* House concert */ addressing vandalism
2007-09-06T21:40:02+00:00,156138279,156120255,0,TastyPoutine,User talk:TastyPoutine,[[WP:AES|←]]Blanked the page
2020-08-25T21:30:46+00:00,974930072,972484439,0,Yapperbot,User talk:TastyPoutine,"[[WP:FRS|Feedback Request Service]] notification on a ""Society, sports, and culture"" request for comment (1/5 this month). You can unsubscribe at [[WP:FRS]]."
2016-09-13T22:04:49+00:00,739298454,738546164,0,HazelAB,User talk:TastyPoutine,/* Your Newspapers.com free account */ new section
2022-01-21T19:31:15+00:00,1067107645,1067005995,0,Yapperbot,User talk:TastyPoutine,"[[WP:FRS|Feedback Request Service]] notification on a ""Biographies"" request for comment (1/5 this month). You can unsubscribe at [[WP:FRS]]."
2022-02-23T21:31:07+00:00,1073657309,1071953542,0,Yapperbot,User talk:TastyPoutine,"[[WP:FRS|Feedback Request Service]] notification on a ""Society, sports, and culture"" request for comment (1/5 this month). You can unsubscribe at [[WP:FRS]]."
2018-08-10T04:28:38+00:00,854275180,853942576,0,Legobot,User talk:TastyPoutine,/* Please comment on Talk:Domestic violence */ new section
2015-11-23T13:43:29+00:00,692013900,674826032,0,MediaWiki message delivery,User talk:TastyPoutine,/* ArbCom elections are now open! */ new section
2013-03-05T01:16:40+00:00,542132614,541445048,0,HostBot,User talk:VMav92,Automatic invitation to visit [[WP:Teahouse]] sent by [[User:HostBot|HostBot]]
2011-08-16T16:41:13+00:00,445176904,444780017,0,Vision Thing,User talk:Vision Thing/Archive4,moved [[User talk:Vision Thing]] to [[User talk:Vision Thing/Archive4]]
2011-05-10T23:53:51+00:00,428501294,428501171,0,Kinu,User talk:Wikipedianamepolicysucks,Redirect to user page per [[WP:DENY]]; obvious trolling.
2015-01-28T05:58:51+00:00,644515243,585334543,0,Xerographica,User talk:Xerographica,/* Futarchy */ new section
2013-12-09T21:03:20+00:00,585334543,577778313,0,IntoThinAir,User talk:Xerographica,Notification: listing at [[WP:AFD|articles for deletion]] of [[Pars pro toto principle]]. ([[WP:TW|TW]])
2012-03-15T03:58:24+00:00,481970595,478340573,0,Fifelfoo,User talk:Xerographica,/* Notice */ new section
2010-08-29T21:40:59+00:00,381767792,381708020,0,Xerographica,User talk:Xerographica,/* Libertarianism. */
2017-10-01T03:04:09+00:00,803201762,644515243,0,Whispering,User talk:Xerographica,Notification: Your [[User:Xerographica/Other people's money|Articles for Creation submission]] has been declined ([[WP:AFCH|AFCH]] 0.9)
2022-01-29T07:30:51+00:00,1068584221,1053106641,0,MalnadachBot,User talk:Xerographica,Replaced [[WP:HTML5|obsolete font tags]] and reduced [[WP:LINT|Lint errors]]. ([[User:MalnadachBot/Task 12|Task 12]])
2021-11-01T23:24:31+00:00,1053106641,1053106609,0,MrLinkinPark333,User talk:Xerographica,Notification: speedy deletion nomination of [[:User:Xerographica/Heterogeneous activity]].
2010-08-18T22:53:56+00:00,379670413,379670342,0,Xerographica,User talk:Xerographica,/* Libertarianism move? */
2019-11-09T11:40:20+00:00,925330738,803201762,0,Piotrus,User talk:Xerographica,Notification: proposed deletion of [[:Brickstarter]]. ([[WP:TW|TW]])
2010-10-08T20:52:29+00:00,389585972,389269199,0,Skyerise,User talk:Xerographica,/* Your block has expired */ new section
2022-05-17T09:06:42+00:00,1088310660,1068584221,0,MalnadachBot,User talk:Xerographica,Fixed [[WP:LINT|Lint errors]]. ([[User:MalnadachBot/Task 12|Task 12]])
2010-08-17T13:55:29+00:00,379400900,379034488,0,MuZemike,"User:""V""forVolatility",Blocked sock of [[User:Karmaisking]]
2018-07-01T01:51:21+00:00,848295526,771821960,0,Mr. Guye,User talk:Zenwhat,Notification: nomination at [[WP:TFD|templates for discussion]] of [[:Template:Botstatusheader]]. ([[WP:TW|Tw]])
2021-06-06T17:26:28+00:00,1027198634,379400900,0,PrimeBOT,"User:""V""forVolatility",/* top */[[User:PrimeBOT/24|Task 24]]: replacement of a template following [[Wikipedia:Templates_for_discussion/Log/2021_May 8|a TFD]]
2008-11-20T18:07:21+00:00,253021954,252941128,0,Tiptoety,User:AntonioMustDie,sock - blocked
2010-05-20T03:32:22+00:00,363133047,361034814,0,Elockid,User:BeVeryAfraid,tag
2010-12-13T20:32:48+00:00,402202815,402139836,0,HelloAnnyong,User:AssangeWinsPeople'sNobel,confirmed
2010-06-18T16:24:14+00:00,368819687,368757207,0,Tnxman307,User:BigPeople=BritishPhilistines,tag
2010-06-18T16:25:25+00:00,368819896,368761735,0,Tnxman307,User:BoE=BlindOafishEnglishmen,tag
2010-05-20T15:46:11+00:00,363215503,278316744,0,Satori Son,User:BucklingUnderTheDebtDeathMarch,update header
2011-03-27T15:41:25+00:00,420992523,420957670,0,Tnxman307,User:Chaos(NotTrueAnarchy)InTheUK,tag
2010-06-18T16:24:49+00:00,368819777,368761715,0,Tnxman307,User:CounterfeitingKeynesians,tag
2011-06-06T15:18:49+00:00,432861522,429543809,0,Elockid,User:DSKisPepeLePew,tag
2010-09-22T18:55:22+00:00,386374745,386374605,0,Atama,User:DebtDukkha,Sockpuppet template.
2020-03-06T16:16:14+00:00,944242370,944224075,0,Reaper Eternal,User:DoingFluSpanishStyle,{{Checkedsockpuppet|Karmaisking}}
2012-06-13T12:46:34+00:00,497388759,497388723,0,Syrthiss,User:DubFXisGOLD,fix
2010-05-27T18:41:46+00:00,364524353,363855930,0,Jpgordon,User:DumbRichSmartPoor,Abusing multiple accounts: [[User:Karmaisking]]
2010-09-22T18:55:51+00:00,386374825,386374632,0,Atama,User:EndgameOfDeath,Fixed template.
2010-08-07T01:30:23+00:00,377576881,377572674,0,Skyerise,User:EveryShysterForHimself,tag blocked sock
2011-06-06T15:19:04+00:00,432861561,426499972,0,Elockid,User:EveryoneIsUsefulAtTheirTrueValue,tag
2011-06-06T15:19:18+00:00,432861600,428910313,0,Elockid,User:EvilLittleWeasel,tag
2010-08-01T23:48:12+00:00,376669451,376585398,0,BigK HeX,User:Gaynomics,conf
2009-04-27T06:12:06+00:00,286386756,286159046,0,PMDrive1061,User:GoldToTheMoonAlice,
2011-06-24T13:53:26+00:00,435977768,435958604,0,Tnxman307,User:GreekPapSmear,tag
2010-06-28T10:25:45+00:00,370574196,370571930,0,Decltype,User:GripThePeopleTooTightAndYouKillThem,blocked as sock
2010-06-01T21:46:13+00:00,365513791,365468820,0,Timotheus Canens,User:GypsyBanksters,tag
2015-10-22T14:40:29+00:00,686971125,686927503,0,Bbb23,User:HiFromIcelandWeRecoveredByJailingBankers,tag
2011-02-25T15:32:39+00:00,415877287,409459183,0,DragonflySixtyseven,User:IMFDoesIrelandGreekStyle,tag
2010-10-03T22:36:23+00:00,388556567,387503170,0,HelloAnnyong,User:IlliterateSocialistZealot,confirmed sock
2021-06-06T23:11:16+00:00,1027254953,384797103,0,PrimeBOT,User:InTheHole666,/* top */[[User:PrimeBOT/24|Task 24]]: replacement of a template following [[Wikipedia:Templates_for_discussion/Log/2021_May 8|a TFD]]
2010-09-14T14:50:12+00:00,384797103,384793173,0,MuZemike,User:InTheHole666,Confirmed
2010-05-20T15:45:46+00:00,363215435,265953962,0,Satori Son,User:InnocentUntilMassacred,confirmed
2010-05-20T15:42:51+00:00,363214976,275993719,0,Satori Son,User:JekyllClubBoreMrHyde,sock
2008-11-22T00:33:57+00:00,253299970,253299169,0,MastCell,User:Karmaisking,"Moved {{unblock}} request to usertalk page, from userpage"
2010-08-06T13:34:43+00:00,377476706,377454471,0,MuZemike,User:KeynesLovedNow,Blocked sock of [[User:Karmaisking]]
2021-06-05T22:48:57+00:00,1027070070,355525889,0,PrimeBOT,User:Kjkkkjj,/* top */[[User:PrimeBOT/24|Task 24]]: replacement of a template following [[Wikipedia:Templates_for_discussion/Log/2021_May_8|a TFD]]
2010-08-17T13:55:11+00:00,379400858,378336585,0,MuZemike,User:LibidoDominandi,Blocked sock of [[User:Karmaisking]]
2010-08-10T17:16:48+00:00,378208763,377455182,0,NativeForeigner,User:LocustsCan'tPlan,You are a sockpuppet of [[User:Karmaisking|Karmaisking]] and have been blocked indefinitely.
2010-08-06T13:50:07+00:00,377478617,377463853,0,MuZemike,User:NoHopeInFiatMoneyWorld,Jeez
2018-09-19T14:37:45+00:00,860271959,860196681,0,Bbb23,User:NothingsChangedPostGFC,Adding sockpuppetry tag per [[Wikipedia:Sockpuppet investigations/Karmaisking]]
2010-05-20T03:33:11+00:00,363133154,362218034,0,Elockid,User:QE2Infinity!,CU confirmed sock
2010-05-20T15:41:30+00:00,363214730,263027251,0,Satori Son,User:PonziWasNotSuperman,update sock header
2008-11-20T18:07:37+00:00,253022010,252602759,0,Tiptoety,User:Ron Paul...Ron Paul...,sock - blocked
2010-09-04T06:09:49+00:00,382823103,382822385,0,Carolmooredc,User:ShadowMan4444,spell
2010-10-12T19:08:50+00:00,390347085,376082090,0,Tiptoety,User:Shylock'sCompassion,Abusing multiple accounts: [[Wikipedia:Sockpuppet_investigations/Karmaisking]]
2010-09-22T18:55:44+00:00,386374810,386374668,0,Atama,User:SummerOfOurDiscontent,Fixed template.
2009-06-30T05:23:09+00:00,299453744,297922035,0,TastyPoutine,User:TastyPoutine,
2010-10-19T18:14:20+00:00,391684190,391610042,0,HelloAnnyong,User:The1792CoinageActHauntsAllZombies,confirmed sock
2010-08-06T14:09:21+00:00,377480979,377456271,0,MuZemike,User:UnderWaterMortgageSlaves,Tag
2010-08-07T01:29:30+00:00,377576782,377565597,0,Skyerise,User:VapidShystersHaveTakenOverPolicy,tag as sock
2020-02-12T16:26:59+00:00,940449291,940401893,0,Bbb23,User:Weinstein'sWeirdWeiner,Adding sockpuppetry tag per [[Wikipedia:Sockpuppet investigations/Karmaisking]]
2010-11-30T15:01:16+00:00,399730911,399705841,0,Tnxman307,User:WikiLeaksWillKillTheBanksters2011,tagged
2010-04-12T12:22:11+00:00,355525961,234673587,0,Lawrencekhoo,User:X-11111,identifying sockpuppet
2020-02-27T18:00:41+00:00,942917608,942916720,0,Bbb23,User:YouCan'tPrintYourWayOutOfAPandemic,retag
2010-08-08T03:26:23+00:00,377757345,377757256,0,Gogo Dodo,User:YouthBittenByBankster-Vampire,{{sockpuppet|Karmaisking|confirmed}}
2010-02-06T12:13:58+00:00,342279858,340153779,0,ArthurBot,V. Gordon Childe,robot Modifying: [[ml:ഗോർഡൻ ചൈൽഡ്]]
2020-04-14T16:37:34+00:00,950934228,950896146,0,GiantSnowman,V. Gordon Childe,date formats per [[MOS:DATEFORMAT]] by [[WP:MOSNUMscript|script]] | Cleaned up using [[WP:AutoEd|AutoEd]]
2006-07-13T16:24:01+00:00,63623190,63622851,0,Doctorbruno,Vada (food),Vadai is the correct South Indian pronunciation
2021-01-14T20:20:01+00:00,1000363102,999968921,0,Yobot,Vada (food),"References after punctuation per [[WP:REFPUNCT]], [[WP:CITEFOOT]], [[WP:PAIC]] + other fixes"
2020-07-19T12:16:20+00:00,968441695,968437747,0,Sitush,Vaishya,Reverted to revision 954055457 by [[Special:Contributions/Sitush|Sitush]] ([[User talk:Sitush|talk]]): Last best version - ignoring inline note and mangling what the sources say ([[WP:TW|TW]])
2006-07-28T11:17:12+00:00,66333317,65376074,0,Ikonoblast,Vaishya,/* Etymologically */ -----Ahir is not a vaisya surname
2021-11-14T07:42:29+00:00,1055166581,1055032002,0,Rasnaboy,Vellore,Correcting sentence
2020-08-22T02:16:55+00:00,974271088,973819822,0,GreenC bot,Vellore,Reformat 2 archive links. [[User:GreenC/WaybackMedic_2.5|Wayback Medic 2.5]]
2012-11-15T10:08:19+00:00,523132746,520616481,0,VIAFbot,Vernon Benjamin Mountcastle,Added the {{[[Template:Authority control|Authority control]]}} template with VIAF number 9977779: http://viaf.org/viaf/9977779 . Please [[WP:VIAF/errors|report any errors]].
2018-09-03T16:05:50+00:00,857873123,857288804,0,SilkTork,"Victoria Park, Barnet",
2015-09-02T00:29:47+00:00,679017197,678415434,0,Dexbot,Vernon Benjamin Mountcastle,Bot: Deprecating [[Template:Cite doi]] and some minor fixes
2017-12-14T08:06:05+00:00,815347270,815302921,0,Philafrenzy,"Victoria Park, Barnet",Undid revision 815302921 by [[Special:Contributions/78.151.159.1|78.151.159.1]] ([[User talk:78.151.159.1|talk]])
2016-06-01T14:50:25+00:00,723183902,723183838,0,Gaia Octavia Agrippa,W. Montgomery Watt,/* Early life and education */ corrected ref
2007-03-24T22:51:40+00:00,117620687,107795728,0,NigelJ,W. Montgomery Watt,No longer stub
2011-05-19T18:11:27+00:00,429918350,413179883,0,193.158.172.244,Wardour Street,/* External links */ cat-fix
2020-06-29T22:38:20+00:00,965191128,942482405,0,Jellysandwich0,Wardour Street,
2018-09-11T12:19:59+00:00,859055631,858480701,0,88.130.57.202,Werner Herzog,/* Film theory */
2009-08-25T14:37:15+00:00,309978913,298271241,0,J 1982,Wertheim,
2008-03-30T11:29:35+00:00,202028402,202011195,0,Kellen,Werner Herzog,[[WP:UNDO|Undid]] revision 202011195 by [[Special:Contributions/Cfboyd4lyf|Cfboyd4lyf]] ([[User talk:Cfboyd4lyf|talk]])
2013-04-22T04:55:01+00:00,551578175,545754969,0,ChrisGualtieri,Wertheim,General Fixes using [[Project:AWB|AWB]]
2019-04-02T02:53:38+00:00,890563129,889181220,0,Discospinster,Westfield Sydney,Reverted edits by [[Special:Contribs/Cificis|Cificis]] ([[User talk:Cificis|talk]]) to last version by Meganesia
2018-05-21T06:03:02+00:00,842245743,833150835,0,Natg 19,What a Year,Disambiguating links to [[A Current Affair]] (link changed to [[A Current Affair (Australian TV series)]]) using [[User:Qwertyytrewqqwerty/DisamAssist|DisamAssist]].
2011-08-21T19:25:22+00:00,446031596,422843697,0,Dl2000,What a Year,"unify formatting per [[WP:MOSNUM|MoS]], script-assisted (AUS subject)"
2008-05-07T07:48:23+00:00,210758957,201499618,0,XLerate,Westfield Sydney,"update logo to vector version per [[WP:USOP]], Replaced: The_Westfield_Group_Logo.PNG → The Westfield Group logo.svg  using [[Project:AutoWikiBrowser|AWB]]"
2022-02-03T11:56:07+00:00,1069660097,1057237628,0,MalnadachBot,Wikipedia:Articles for deletion/Debt money,Fixed [[WP:LINT|Lint errors]]. ([[User:MalnadachBot/Task 12|Task 12]])
2008-01-02T21:00:19+00:00,181696596,181321834,0,RenamedUser jaskldjslak903,Wikipedia:Articles for deletion/Debt money,close discussion: delete
2008-03-12T15:48:23+00:00,197737417,197673303,0,Scientizzle,Wikipedia:Articles for deletion/Money as Debt,Closing debate; result was Delete
2011-05-04T07:48:43+00:00,427370361,427369331,0,Andrewedwardjudd,Wikipedia:Mediation Cabal/Cases/12 April 2011/Fractional-reserve banking,/* sec break1 */
2011-09-02T21:49:57+00:00,448109290,447992841,0,TransporterMan,Wikipedia:Mediation Cabal/Cases/12 April 2011/Fractional-reserve banking,Reclosed as still stale
2011-07-06T22:32:50+00:00,438134282,438122928,0,94.172.117.205,Wikipedia:Reference desk/Miscellaneous,/* Worst Vandal */
2009-09-24T19:04:55+00:00,315972570,315970919,0,Mark PEA,Wikipedia:Reference desk/Miscellaneous,/* Effective cat deterrent for the garden */
2022-09-16T01:19:12+00:00,1110528680,1110528195,0,Scsbot,Wikipedia:Reference desk/Science,edited by robot:\narchiving September 8
2016-03-23T15:29:08+00:00,711546678,711546652,0,Nimur,Wikipedia:Reference desk/Science,/* uranium or plutonium in nuclear weapons */
2021-04-27T14:53:20+00:00,1020161822,1020148253,0,Richard Avery,Wikipedia:Reference desk/Science,/* Why do humans feel their skin crawlwhen they saw disgusting images? */
2007-01-10T14:09:21+00:00,99761446,99761352,0,Smurrayinchester,Wikipedia:Reference desk/Science,/* Will there be a mass die-off of my local gulls? */ Fix grammar
2010-06-04T00:57:22+00:00,365935747,365934750,0,Looie496,Wikipedia:Reference desk/Science,/* Cooking oil contamination? */ further comment
2018-11-25T01:24:29+00:00,870470656,870451478,0,Scsbot,Wikipedia:Reference desk/Science,edited by robot:\nadding date header(s)
2019-10-16T02:47:55+00:00,921502704,921390148,0,RMCD bot,Wikipedia:Requested moves,Removing backlog notice
2020-04-20T16:33:57+00:00,952111097,952076539,0,RMCD bot,Wikipedia:Requested moves,Adding backlog notice
2021-05-30T04:45:13+00:00,1025887066,1022925594,0,Facts707,Wikipedia:Requested moves,{{For|the current list of potentially controversial requested moves|#Current discussions}} - always have to hunt for that.
2015-12-18T00:12:29+00:00,695706750,693810192,0,Rezonansowy,Wikipedia:Requested moves,"adding hatnote, this info should be highlighted, as many users cannot find the right page to move files"
2008-01-13T14:06:39+00:00,184040265,184034479,0,Visor,Wikipedia:Requested moves,/* Other proposals */ +Therion
2012-06-04T14:24:09+00:00,495939188,495542097,0,Armbrust,Wikipedia:Requested moves,correct
2018-02-02T10:32:28+00:00,823619515,822495334,0,RMCD bot,Wikipedia:Requested moves,Removing backlog notice
2015-10-28T07:36:30+00:00,687874502,687874411,0,Steel1943,Wikipedia:Requested moves,Reverted to revision 687533508 by [[Special:Contributions/Zzyzx11|Zzyzx11]] ([[User talk:Zzyzx11|talk]]): Wrong location for request - see instructions on page. ([[WP:TW|TW]])
2006-06-20T21:25:37+00:00,59694513,59693790,0,Koavf,Wikipedia:Requested moves,/* [[20 June]] [[2006]] */
2006-05-11T19:22:20+00:00,52707107,52705795,0,Kafziel,Wikipedia:Requested moves,/* [[11 May]] [[2006]] */ re: Rick Ross request
2013-09-08T20:48:46+00:00,572102604,572102133,0,Wbm1058,Wikipedia:Requested moves,"new key for [[Category:Wikipedia noticeboards]]: ""moves"" using [[WP:HC|HotCat]]"
2018-01-06T05:31:13+00:00,818889248,818784115,0,RMCD bot,Wikipedia:Requested moves,Adding backlog notice
2019-12-15T03:11:01+00:00,930813836,930745296,0,TheSandDoctor,Wikipedia:Sockpuppet investigations/Karmaisking,Archiving case to [[Wikipedia:Sockpuppet investigations/Karmaisking/Archive]]
2010-10-19T18:14:46+00:00,391684281,391649286,0,HelloAnnyong,Wikipedia:Sockpuppet investigations/Karmaisking,"Marking case as closed, archiving case to [[Wikipedia:Sockpuppet investigations/Karmaisking/Archive]]"
2016-08-23T12:01:34+00:00,735835495,735768239,0,Vanjagenije,Wikipedia:Sockpuppet investigations/Karmaisking,Archiving case to [[Wikipedia:Sockpuppet investigations/Karmaisking/Archive]]
2020-04-22T03:54:12+00:00,952419071,952327290,0,JJMC89,Wikipedia:Sockpuppet investigations/Karmaisking,Archiving case to [[Wikipedia:Sockpuppet investigations/Karmaisking/Archive]]
2015-10-23T08:00:10+00:00,687096246,686971235,0,Vanjagenije,Wikipedia:Sockpuppet investigations/Karmaisking,Archiving case to [[Wikipedia:Sockpuppet investigations/Karmaisking/Archive]]
2013-03-22T19:38:31+00:00,546365784,546298489,0,NativeForeigner,Wikipedia:Sockpuppet investigations/Karmaisking,Archiving case to [[Wikipedia:Sockpuppet investigations/Karmaisking/Archive]]
2012-12-03T05:53:26+00:00,526130779,526108932,0,Courcelles,Wikipedia:Sockpuppet investigations/Karmaisking,Archiving case to [[Wikipedia:Sockpuppet investigations/Karmaisking/Archive]]
2015-03-02T22:51:37+00:00,649603360,649396482,0,Vanjagenije,Wikipedia:Sockpuppet investigations/Karmaisking,Archiving case to [[Wikipedia:Sockpuppet investigations/Karmaisking/Archive]]
2010-11-14T01:52:36+00:00,396622285,396622230,0,MuZemike,Wikipedia:Sockpuppet investigations/Karmaisking,Archiving case to [[Wikipedia:Sockpuppet investigations/Karmaisking/Archive]]
2018-09-19T16:40:15+00:00,860286565,860272238,0,Ivanvector,Wikipedia:Sockpuppet investigations/Karmaisking,Archiving case to [[Wikipedia:Sockpuppet investigations/Karmaisking/Archive]]
2013-11-14T05:47:24+00:00,581588403,581580628,0,Rschen7754,Wikipedia:Sockpuppet investigations/Karmaisking,Archiving case to [[Wikipedia:Sockpuppet investigations/Karmaisking/Archive]]
2021-09-13T20:18:06+00:00,1044146965,1043378568,0,GeneralNotability,Wikipedia:Sockpuppet investigations/Karmaisking,Archiving case section to [[:w:en:Wikipedia:Sockpuppet investigations/Karmaisking/Archive]] (using [[:w:en:User:GeneralNotability/spihelper|spihelper.js]])
2011-07-08T01:45:33+00:00,438339077,438114305,0,Steven Crossin,Wikipedia:Sockpuppet investigations/Karmaisking,Archiving case to [[Wikipedia:Sockpuppet investigations/Karmaisking/Archive]]
2016-01-14T19:02:57+00:00,699830715,699829200,0,Vanjagenije,Wikipedia:Sockpuppet investigations/Karmaisking,Archiving case to [[Wikipedia:Sockpuppet investigations/Karmaisking/Archive]]
2012-08-16T20:35:20+00:00,507738384,507530239,0,Keilana,Wikipedia:Sockpuppet investigations/Karmaisking,Archiving case to [[Wikipedia:Sockpuppet investigations/Karmaisking/Archive]]
2012-11-07T04:41:43+00:00,521778770,521778568,0,Lawrencekhoo,Wikipedia:Sockpuppet investigations/Karmaisking,/* Comments by other users */
2012-04-01T09:49:19+00:00,484972301,484957190,0,Spitfire,Wikipedia:Sockpuppet investigations/Karmaisking,Archive
2009-03-27T11:48:58+00:00,279991690,279991668,0,SPCUClerkbot,Wikipedia:Sockpuppet investigations/Karmaisking,Archiving [[Wikipedia:Sockpuppet investigations/Karmaisking| case]]
2012-10-17T07:59:36+00:00,518281152,518279733,0,Lawrencekhoo,Wikipedia:Sockpuppet investigations/Karmaisking,/* 17 October 2012 */
2013-03-05T06:18:36+00:00,542165257,542163690,0,Lawrencekhoo,Wikipedia:Sockpuppet investigations/Karmaisking,/* Comments by other users */
2019-06-17T17:34:17+00:00,902265316,901517078,0,Leutha,William Paterson (banker),/* Career */
2015-09-28T13:23:10+00:00,683149733,660770483,0,Philg88,William Paterson (banker),/* Darien scheme */ link to main article
2009-06-14T14:23:44+00:00,296356515,282162897,0,92.20.10.135,William Paterson (banker),/* Career */
2007-06-29T00:17:10+00:00,141285188,141281908,0,Victor falk,William Paterson (banker),/* See also */
2008-07-11T21:37:48+00:00,225098777,211024255,0,SilkTork,Woodstock Pub,merge with [[Thong_Lo#Restaurants.2C_Bars_and_Cafes]]
2010-11-21T10:49:08+00:00,398033669,225098777,0,FrescoBot,Woodstock Pub,Bot: fixing section wikilinks
2013-03-24T00:04:59+00:00,546637374,541544760,0,Addbot,Xiaozi,"[[User:Addbot|Bot:]] Migrating 1 interwiki links, now provided by [[Wikipedia:Wikidata|Wikidata]] on [[d:q8044319]]"
2019-04-24T00:02:37+00:00,893849531,889456241,0,2600:1700:DD30:2810:490F:BFB1:E161:9848,Yeoville,/* Founding */
2006-08-29T23:03:43+00:00,72706654,72048243,0,208.114.146.247,Yeoville,
2022-05-21T04:09:06+00:00,1088974293,1065394286,0,19adam99,Zoom Airlines,Addition of accurate svg logo
2020-04-12T00:14:28+00:00,950417211,933892564,0,76.70.114.164,Zoom Airlines,/* North America */
2020-05-12T18:17:20+00:00,956318155,955694741,0,Mdnavman,1896,/* July&ndash;August */ Added birth.
2007-05-03T07:18:20+00:00,127898197,126792096,0,Wikid77,1896,fix Julian weekday; shorten internal comments
2006-03-29T04:04:32+00:00,45959709,45904934,0,Саша Стефановић,2006 Montenegrin independence referendum,+sr
2019-09-27T17:11:39+00:00,918232939,918232244,0,WalterII,2006 Montenegrin independence referendum,/* Neutral */
2012-08-18T20:47:04+00:00,508033024,506073046,0,85.72.230.139,1896,
2009-07-03T21:09:44+00:00,300117170,299723371,0,TinucherianBot II,1896,robot Adding: [[war:1896]]
2009-01-11T18:53:49+00:00,263423190,262235670,0,92.0.143.45,1896,
2021-02-07T22:12:52+00:00,1005484558,1003494894,0,Newslack,2006 Montenegrin independence referendum,/* International lobby */
2020-04-30T13:49:26+00:00,954063231,947794236,0,Foghe,2006 Montenegrin independence referendum,"The ""Europan Union"" has no foreign common policy."
2018-04-28T02:06:47+00:00,838601385,833883966,0,177.99.52.187,1896,
2018-06-04T00:31:11+00:00,844295190,841901400,0,Nowhere77,2006 Montenegrin independence referendum,/* Alleged irregularities during the campaign */
2012-03-18T03:57:02+00:00,482481965,482481830,0,Mdnavman,1896,/* July&ndash;December */ Headers.
2007-02-05T00:02:25+00:00,105682940,105627701,0,Escarbot,1896,robot  Adding: [[mr:ई.स. १८९६]]
2017-10-22T19:34:40+00:00,806552419,805282337,0,189.115.147.113,1896,31
2015-08-14T15:01:24+00:00,676079520,675697650,0,Nightscream,2007–2008 financial crisis,"Split section, consistent with the vast majority of other articles."
2010-03-15T11:26:39+00:00,349986101,349867143,0,Wikidea,2007–2008 financial crisis,/* See also */
2009-03-17T01:07:52+00:00,277771397,277723190,0,Borgx,2007–2008 financial crisis,~id
2022-01-12T01:42:41+00:00,1065142623,1064971174,0,IWriteHistory,2007–2008 financial crisis,
2017-02-06T01:12:31+00:00,763924646,763907623,0,Rhododendrites,Affirmative action,Reverted 1 edit by [[Special:Contributions/192.76.8.3|192.76.8.3]] ([[User talk:192.76.8.3|talk]]): Unexplained blanking. ([[WP:TW|TW]])
2007-12-13T02:01:44+00:00,177568514,177562106,0,64.252.169.22,Affirmative action,
2012-10-13T15:21:38+00:00,517584946,517359592,0,Jason from nyc,2007–2008 financial crisis,/* Incorrect pricing of risk */ fix citation: article now available online
2015-02-16T07:09:28+00:00,647362609,646206321,0,70.176.139.50,2007–2008 financial crisis,"/* Deregulation */ This statement does not derive from this source in any way. This article does not claim that Glass Steagall created any institutions that contributed to this event, but that, in its opinion, it would not have effected its happening."
2012-07-25T09:48:56+00:00,504088899,503967068,0,Rwxrwxrwx,Affirmative action,/* Europe */ fix caption
2013-05-22T05:22:43+00:00,556218691,555706350,0,Coiledcoil,Affirmative action,/* Opposition */ spelling and removed non-notable redlink
2021-10-11T20:29:05+00:00,1049435875,1049357587,0,Verbcatcher,2007–2008 financial crisis,Undid revision 1049357587 by [[Special:Contributions/185.69.144.102|185.69.144.102]] ([[User talk:185.69.144.102|talk]]) see [[WP:NOTBROKEN]]
2018-02-11T06:25:56+00:00,825056399,824432324,0,67.58.117.197,Affirmative action,"“Favoring” was a misleading term to use and I replaced it with “protecting”. Affirmative action is intended to provide more support and protection for those who may experience disadvantages due to discrimination based on political ideology, rac..."
2008-10-17T21:21:29+00:00,245975159,245780091,0,68.251.175.168,Affirmative action,POV
2021-02-02T15:16:13+00:00,1004429151,1003223759,0,Brillenschnapp,Affirmative action,/* See also */
2020-03-27T22:31:27+00:00,947693905,947171412,0,Jancarcu,Affirmative action,Refactoring first sentence per [[WP:REFERS]]
2005-11-19T15:56:40+00:00,28756999,28736219,0,Eskimbot,Affirmative action,robot  Modifying: he
2016-01-30T18:06:48+00:00,702455114,702451978,0,MShabazz,Affirmative action,Undid revision 702451978 by [[Special:Contributions/131.252.200.202|131.252.200.202]] ([[User talk:131.252.200.202|talk]]) rv good-faith edit -- affirmative action refers to education and other fields besides employment
2013-12-05T15:09:14+00:00,584697687,584697607,0,Kmg90,Affirmative action in the United States,[[Help:Reverting|Reverted]] edits by [[Special:Contributions/205.202.104.180|205.202.104.180]] ([[User talk:205.202.104.180|talk]]) to last version by NeilN
2006-01-10T13:09:13+00:00,34613963,34465141,0,Johnleemk,Affirmative action,/* Biological Differences */ fmt
2015-03-24T06:27:44+00:00,653270147,653217288,0,Dwang41,Affirmative action in the United States,
2010-07-04T19:37:43+00:00,371745506,371744199,0,24.18.96.38,Affirmative action,Not necessarily
2019-07-18T00:29:06+00:00,906753396,903951599,0,199.169.204.154,Affirmative action in the United States,fixed a small typo
2009-12-03T06:59:48+00:00,329411180,326994230,0,Secretspecialsauce,Affirmative action in the United States,/* Discrimination? */ added research that counters the argument made by anti affirmative action camp
2006-08-25T11:19:14+00:00,71789199,71755294,0,Psychohistorian,Affirmative action in the United States,moved more content specific to the US
2019-10-20T23:09:35+00:00,922250349,922247173,0,Zayn1254,Affirmative action in the United States,added some citations under legal history
2018-11-21T13:07:50+00:00,869956080,868513244,0,138.251.240.184,Affirmative action in the United States,/* Trump Administration */ Removed bad citation and speculation.
2022-09-26T05:06:55+00:00,1112401829,1112401766,0,GuardianH,Affirmative action in the United States,rephrase
2010-04-01T10:34:26+00:00,353325558,353325436,0,Wikipelli,Affirmative action in the United States,Undid revision 353325436 by [[Special:Contributions/99.89.13.216|99.89.13.216]] ([[User talk:99.89.13.216|talk]])
2022-07-15T12:18:32+00:00,1098354562,1095288122,0,Thrakkx,Affirmative action in the United States,"Changing [[Wikipedia:Short description|short description]] from ""Overview of the topic"" to one that is [[WP:SDNONE|intentionally blank]]"
2012-01-17T16:07:21+00:00,471881756,471880995,0,72.137.221.104,Affirmative action in the United States,/* Discrimination */
2016-02-14T09:14:26+00:00,704904819,704904313,0,Dsprc,Alcor Life Extension Foundation,/* Membership */ mv && wayback machine
2006-04-17T12:14:41+00:00,48833252,48532026,0,66.10.26.253,Alcor Life Extension Foundation,/* History */
2014-08-14T02:31:24+00:00,621151281,614819403,0,Yiosie2356,Alcor Life Extension Foundation,Updates to figures
2011-12-03T18:49:15+00:00,463868106,460686643,0,69.245.42.52,Alcor Life Extension Foundation,/* Membership */
2011-06-17T04:30:24+00:00,434706877,434274721,0,68.231.85.142,Alcor Life Extension Foundation,/* Membership */
2007-09-19T23:57:58+00:00,159062537,155190371,0,Maxim,Alcor Life Extension Foundation,Removing instance of image AlcorLEFLogo.gif that has been speedily deleted per ([[WP:CSD#I4|CSD I4]]);  using [[WP:TW|TW]]
2012-07-06T22:29:19+00:00,501017737,500021468,0,Avatar9n,Aleksandr Solzhenitsyn,/* After prison */
2012-02-21T04:06:04+00:00,478012954,477368983,0,CaritasUbi,Aleksandr Solzhenitsyn,Fixed syntax error with <ref> link
2011-04-05T18:39:20+00:00,422556870,422529930,0,Graham Beards,Aleksandr Solzhenitsyn,/* Imprisonment */ was the wrong typo
2010-02-14T17:00:17+00:00,344045591,343961786,0,Daphne mesereum,Aleksandr Solzhenitsyn,birthplase is Kislovodsk not Rostov (see Russian WP)
2011-08-23T21:24:09+00:00,446386156,446357340,0,Psychiatrick,Aleksandr Solzhenitsyn,wikification
2014-06-28T23:45:05+00:00,614819403,614819313,0,24.251.245.130,Alcor Life Extension Foundation,
2012-04-26T15:47:27+00:00,489326681,489300876,0,Tomcat7,Aleksandr Solzhenitsyn,replaced with a more expressive picture
2008-08-01T12:39:31+00:00,229215670,225528587,0,59.149.118.174,Alcor Life Extension Foundation,
2015-08-19T06:26:34+00:00,676797178,675582567,0,Yiosie2356,Alcor Life Extension Foundation,Updated statistics
2006-02-26T04:35:28+00:00,41267983,40283445,0,Bloodshedder,Aleksandr Solzhenitsyn,main template
2005-11-22T18:08:16+00:00,28995748,28995352,0,Staecker,Aleksandr Solzhenitsyn,/* In the Soviet Union */ little edit
2009-02-10T03:11:23+00:00,269690775,269539383,0,71.98.11.97,Aleksandr Solzhenitsyn,/* Vietnam war */
2013-10-25T03:40:42+00:00,578644074,569916948,0,190.211.210.151,Alfredo Astiz,
2007-08-02T10:22:13+00:00,148692069,147593179,0,220.101.138.98,Alfredo Astiz,/* Prisoners of war */
2020-10-18T12:18:21+00:00,984138128,982387757,0,95.237.111.66,Alfredo Astiz,/* Intelligence officer */
2008-12-02T01:05:09+00:00,255324025,252511418,0,Fudoreaper,Alfredo Astiz,disambiguate link
2020-12-13T09:14:56+00:00,993945038,987470896,0,Loganmac,Alfredo Astiz,
2017-11-09T14:36:35+00:00,809499432,801450850,0,213.127.210.95,Alfredo Astiz,"""the it announced"" corrected to ""it announced"", on the assumption the subject of the verb is the British government"
2008-10-16T16:33:30+00:00,245694612,244693457,0,213.121.151.174,Alfredo Astiz,/* Falklands War */
2008-01-09T19:13:39+00:00,183227376,182077522,0,StephenWeber,American Monetary Institute,deeper category available
2011-01-29T21:15:51+00:00,410828160,410447796,0,Johnwilliammiller,American Monetary Institute,"""Australa"" to ""Australia"""
2008-12-11T18:44:09+00:00,257319765,250907200,0,67.40.5.197,American Monetary Institute,/* External links */
2007-03-01T17:11:37+00:00,111861206,111805577,0,Gakrivas,Anal sex,correct /ref tag in feminist point of view
2019-02-20T03:47:03+00:00,884197585,884192075,0,Novusuna,Anal sex,Reverted 1 edit by [[Special:Contributions/XKnuckLez|XKnuckLez]] ([[User talk:XKnuckLez|talk]]): A note in the source explains why the previous wording is used. ([[WP:TW|TW]])
2006-08-31T11:17:19+00:00,73004571,73004512,0,Tony pal,Anal sex,/* Anal sex among heterosexuals */
2014-08-02T18:34:07+00:00,619579102,619576280,0,ArordineriiiUkhtt,Anal sex,
2015-03-19T16:17:54+00:00,652093231,642316859,0,Stamptrader,Anal sex,corrected CS1 errors
2006-01-28T23:35:25+00:00,37138959,37063135,0,Rollie,Anal sex,
2009-08-24T17:53:08+00:00,309819462,309819359,0,Beland,Anal sex,/* Health risks */ move image to avoid layout conflict
2022-10-13T00:57:38+00:00,1115749975,1115455130,0,Captain Cornwall,Andreja Pejić,She was previously notable under this name.
2015-08-24T15:06:53+00:00,677632439,676571661,0,PC78,Andreja Pejić,
2013-12-28T13:23:54+00:00,588066010,587927392,0,59.41.252.229,Andreja Pejić,"S/He was just born in Bosnia, but lived there for a few months and in Serbia for 8 years, before moving to Australia, as a citizen of Serbia."
2017-07-14T23:02:17+00:00,790617977,790617233,0,2604:2000:EF0E:6B00:715F:9977:99BD:93E6,Andreja Pejić,"Updated Andreja's Models.com ranking. On her profile there it lists her achievements as being in the ""top 50"" not ""top 50 males"""
2020-01-25T21:57:43+00:00,937572909,937572881,0,GorillaWarfare,Andreja Pejić,Reverted edits by [[Special:Contributions/2001:1970:5067:B400:0:0:0:FDEB|2001:1970:5067:B400:0:0:0:FDEB]] ([[User talk:2001:1970:5067:B400:0:0:0:FDEB|talk]]) ([[WP:HG|HG]]) (3.4.9)
2018-04-05T08:05:51+00:00,834352513,834347197,0,LM2000,Andreja Pejić,Undid revision 834347197 by [[Special:Contributions/2604:2000:E850:D00:6839:8824:5AFC:F31]] sources say 1991 birth date
2018-02-07T10:41:22+00:00,824442505,824442478,0,Radiohist,Andreja Pejić,/* Notes */
2022-07-18T01:56:19+00:00,1098908016,1092991782,0,Stephanie921,Andreja Pejić,
2015-01-01T15:36:33+00:00,640518543,639808475,0,Cognissonance,Andreja Pejić,/* Career */ space
2022-04-09T21:31:14+00:00,1081817327,1081817146,0,31.223.143.170,Andreja Pejić,
2013-07-19T01:05:21+00:00,564863037,564820852,0,DemirBajraktarevic,Andreja Pejić,
2011-11-14T08:09:05+00:00,460576417,460576306,0,99.255.217.164,Andreja Pejić,/* Early life */
2014-01-31T14:59:06+00:00,593284326,593257688,0,Ashestobeautiful,Andreja Pejić,The correct URL for FHM's 2011 Sexiest Women
2014-01-18T20:56:20+00:00,591320746,591320539,0,84.198.53.190,Andreja Pejić,
2015-11-21T10:59:08+00:00,691663776,690104131,0,125.212.122.108,Andreja Pejić,
2012-08-05T16:32:08+00:00,505923888,505030311,0,76.247.143.145,Andreja Pejić,
2018-10-22T14:02:06+00:00,865212315,865208720,0,LM2000,Andreja Pejić,Reverted edits by [[Special:Contribs/Forcast234|Forcast234]] ([[User talk:Forcast234|talk]]) to last version by LM2000
2012-02-26T00:22:50+00:00,478863609,478739667,0,99.119.98.233,Andreja Pejić,Undid revision 478739667 by [[Special:Contributions/Cindya dk|Cindya dk]] ([[User talk:Cindya dk|talk]]) — See talk page re: pronunciation.
2014-06-28T05:01:51+00:00,614722132,612931756,0,Wikiweb10011,Andreja Pejić,Added reference
2021-01-17T20:04:48+00:00,1001004551,999118587,0,Pjesnik21,Andreja Pejić,
2019-02-16T21:31:47+00:00,883672887,883672878,0,Deisenbe,Arthur McDuffie,removed [[Category:Deaths in police custody in the United States7]]; added [[Category:Deaths in police custody in the United States]] using [[WP:HC|HotCat]]
2013-02-22T17:22:56+00:00,539703139,0,0,Cuchullain,Arthur McDuffie,Cuchullain moved page [[Arthur McDuffie]] to [[1980 Miami riots]]: Per move discussion
2017-02-10T21:34:22+00:00,764775705,764775457,0,50.53.1.33,Ashes to Ashes (David Bowie song),/* Cover versions */
2012-11-01T03:58:45+00:00,520848846,511707371,0,115.133.246.231,Ashes to Ashes (David Bowie song),
2014-05-02T12:21:02+00:00,606760910,605813975,0,Derek R Bullamore,Ashes to Ashes (David Bowie song),Minor clean-up
2022-04-27T21:01:50+00:00,1085000956,1078111906,0,Songwaters,Ashes to Ashes (David Bowie song),/* Critical reception */
2007-03-28T15:50:39+00:00,118537530,115428790,0,Marjoriedawes,Ashes to Ashes (David Bowie song),/* Music and lyrics */
2017-02-06T11:33:26+00:00,763987704,762440212,0,Sfreun54 4,Ashes to Ashes (David Bowie song),Added a cover version of this song which was missing
2010-04-26T10:47:51+00:00,358382312,358380494,0,JD554,Ashes to Ashes (David Bowie song),rm hatnote
2016-05-16T10:46:56+00:00,720518323,720479120,0,Richhoncho,Ashes to Ashes (David Bowie song),copied songwriters from text to infobox -  removes from [[Category:Song articles with missing songwriters]]
2019-04-30T08:40:08+00:00,894829041,894768257,0,Doctorhawkes,Ashes to Ashes (David Bowie song),[[WP:CSC]]
2007-02-28T17:44:08+00:00,111618001,109026980,0,128.54.60.190,Ashes to Ashes (David Bowie song),"/* Cover versions */ ""soongbook"" corrected"
2018-04-02T16:40:51+00:00,833829806,831437018,0,Ahpook,Ashes to Ashes (David Bowie song),/* Music video */ Removed one use of the word 'iconic' - no need to over-egg the pudding.
2019-04-24T15:07:33+00:00,893938616,888664086,0,185.24.205.204,Australian Jews,/* Zionist institutions */ Removed reference to Bnei Akiva - irrelevant to paragraph
2012-03-08T10:35:31+00:00,480815574,474032881,0,Ashkas,Australian Jews,/* Personalities */
2020-04-05T05:16:21+00:00,949207424,947901485,0,DannyS712,Australian Jews,Fixing the location of periods / full stops
2014-11-01T05:42:46+00:00,631978846,628254776,0,Kaliforniyka,Australian Jews,/* History */
2022-09-21T23:28:51+00:00,1111612614,1111612216,0,2603:7000:2143:8500:282C:FBAC:E8E1:9E0A,Australian Jews,Filled in 5 bare reference(s) with reFill 2
2013-04-06T16:58:26+00:00,549019062,548823268,0,115.64.41.26,Australian Jews,
2009-04-28T22:46:00+00:00,286740793,286740703,0,122.148.130.113,Australian Jews,/* Language */
2012-10-10T00:54:09+00:00,516921563,516648732,0,EagerToddler39,Australian Jews,Inserted missing </ref> tag
2015-01-19T04:40:18+00:00,643156482,631978846,0,2604:2000:DDEA:8300:199C:9AFC:695C:E7AD,Australian Jews,Jewish --> Jews
2010-02-17T01:46:38+00:00,344529230,343519606,0,DixonDBot,Austrian business cycle theory,robot Removing: [[de:Österreichischeswirtschaftszyklustheorie]]
2007-11-27T19:06:11+00:00,174188383,174188145,0,71.194.87.47,Austrian business cycle theory,/* References */
2012-03-17T02:32:51+00:00,482302103,482301805,0,Emma Caroline,Austrian business cycle theory,Reverted 1 edit by [[Special:Contributions/Smith'sFistUpGoldman'sMuppet|Smith'sFistUpGoldman'sMuppet]] ([[User talk:Smith'sFistUpGoldman'sMuppet|talk]]): Copyvio of http://www.answers.com/topic/austrian-school. ([[WP:TW|TW]])
2015-04-06T20:14:21+00:00,655237459,649832151,0,89.101.15.39,Austrian business cycle theory,/* Theoretical objections */Added content
2015-07-23T03:28:21+00:00,672675681,672675639,0,GreekDespair,Austrian business cycle theory,
2007-05-22T04:28:55+00:00,132607913,129708870,0,Ikilled007,Austrian business cycle theory,/* External links */ Removed link that doesn't explain Austrian BC Theory
2009-11-13T00:56:52+00:00,325541090,325540803,0,192.188.252.112,Austrian business cycle theory,/* Empirical research */
2020-12-28T19:23:12+00:00,996816537,990229238,0,24.94.45.96,Austrian business cycle theory,Added additional context
2009-10-13T19:47:54+00:00,319679804,319522811,0,24.69.172.50,Austrian business cycle theory,
2015-06-19T12:54:20+00:00,667625107,663203550,0,121.217.10.93,Austrian business cycle theory,/* Similar theories */
2013-01-06T03:22:42+00:00,531558663,531549271,0,Amanski,Austrian business cycle theory,/* Criticisms */
2009-01-05T06:27:32+00:00,262047646,262047521,0,60.53.72.221,Austrian business cycle theory,/* Critiques */
2015-07-04T01:39:20+00:00,669859304,668206118,0,80.215.178.52,Austrian business cycle theory,/* Empirical research */
2010-03-23T18:41:44+00:00,351610332,351120641,0,JustAGal,Austrian business cycle theory,disambig William White
2008-12-09T14:34:24+00:00,256835531,256835438,0,91.199.122.25,Austrian business cycle theory,
2010-09-20T13:59:51+00:00,385912530,385212562,0,161.7.95.203,Austrian business cycle theory,"Redid change of 'theory' to 'Austrian explanation', as 'theory' could refer to either Austrian or conventional economic theory. Minor edit for clarification."
2008-10-11T03:52:35+00:00,244507267,244506853,0,Benbest,Austrian business cycle theory,"/* Origin */  not ""canonical"" , wikilink"
2016-01-01T02:17:50+00:00,697676960,688707730,0,120.155.96.192,Austrian business cycle theory,/* Malinvestment and “boom” */
2008-12-26T22:45:10+00:00,260236896,260236354,0,88.144.18.196,Austrian business cycle theory,not empirical work
2010-02-01T19:50:04+00:00,341329918,341248205,0,Krisztián Pintér,Austrian business cycle theory,/* Assertions */ linkize
2009-12-23T05:12:03+00:00,333463197,333462828,0,222.166.160.6,Austrian business cycle theory,/* Similar theories */
2015-05-20T17:26:15+00:00,663285602,663285507,0,Favonian,Austrian school of economics,"Protected Austrian School: Persistent [[WP:Vandalism|vandalism]] ([Edit=Allow only autoconfirmed users] (expires 17:26, 23 May 2015 (UTC)) [Move=Allow only autoconfirmed users] (expires 17:26, 23 May 2015 (UTC)))"
2015-08-11T16:19:50+00:00,675606056,674431886,0,AlexanderLevian,Austrian school of economics,/* See also */  no connection
2010-08-22T14:32:06+00:00,380325613,380258687,0,Muhandes,Austrian school of economics,/* Inter-war period */ corrected
2009-02-04T19:33:34+00:00,268529246,268528975,0,Debresser,Austrian school of economics,"my fault, there were 2 more datefixes"
2006-06-02T02:38:27+00:00,56431171,56042787,0,Trialsanderrors,Austrian school of economics,/* Major Austrian economists */ Disclaimer
2017-12-20T14:44:20+00:00,816305395,816305209,0,Shellwood,Austrian school of economics,Reverted edits by [[Special:Contributions/50.245.39.115|50.245.39.115]] ([[User talk:50.245.39.115|talk]]) ([[WP:HG|HG]]) (3.1.22)
2006-03-08T00:47:49+00:00,42730685,41114897,0,AaronS,Austrian school of economics,clean up using [[Wikipedia:AutoWikiBrowser|AWB]]
2005-10-06T06:03:15+00:00,24875205,24783725,0,71.107.199.216,Austrian school of economics,/* External links */
2016-11-16T00:36:50+00:00,749753801,748972805,0,24.188.186.38,Austrian school of economics,/* General criticisms */ Fix broken link to Shenoy essay
2018-12-31T04:47:25+00:00,876102200,872152176,0,Smasongarrison,Austrian school of economics,"copy edit with [[Wikipedia:AutoWikiBrowser/General_fixes|General fixes]]; url trimming of identifying info per[[WP:LINKSTOAVOID]] and [[Template:Citation_Style_documentation#url|Citation Style]], replaced: ’ → ' (2), “ → "" (2), <blockquote>"
2007-11-05T06:44:58+00:00,169327054,158981951,0,76.202.131.68,Austrian school of economics,Added Ron Paul to the list of Austrian Economists
2015-08-31T12:35:13+00:00,678755148,677746988,0,72.10.227.122,Austrian school of economics,/* Split among contemporary Austrians */
2016-09-15T13:37:14+00:00,739569413,738861054,0,14.0.164.84,Austrian school of economics,Grammar
2008-06-02T02:11:55+00:00,216535055,216515739,0,ATD~enwiki,Austrian school of economics,Spelling error in introduction
2007-01-24T11:25:39+00:00,102882303,101830231,0,Ikilled007,Austrian school of economics,/* Major economists affiliated with the Austrian School */
2011-09-22T09:14:53+00:00,451819066,451809345,0,112.218.241.189,Austrian school of economics,/* Methodology */
2018-09-17T17:18:17+00:00,859995257,858537272,0,DOR (HK),Austrian school of economics,/* Later 20th century */
2007-07-06T12:09:01+00:00,142879108,142655601,0,87.126.170.99,Austrian school of economics,
2006-06-24T15:02:34+00:00,60342434,58878506,0,86.144.221.182,Austrian school of economics,/* Major economists affiliated with the Austria School */
2016-06-15T15:41:51+00:00,725424858,724718912,0,Dcirovic,Austrian school of economics,refs
2006-05-31T01:09:01+00:00,56042787,54692234,0,YurikBot,Austrian school of economics,robot  Modifying: [[fr:École autrichienne d'économie]]
2015-06-22T22:52:44+00:00,668205030,667734966,0,71.74.91.10,Austrian school of economics,Fixed typo
2014-01-24T03:45:55+00:00,592120246,592119228,0,108.68.114.96,Austrian school of economics,
2008-02-24T22:08:28+00:00,193787665,193426749,0,24.17.96.215,Austrian school of economics,
2019-04-19T01:04:04+00:00,893102926,893102769,0,HapHaxion,Austrian school of economics,
2008-03-02T20:43:29+00:00,195394655,194600450,0,Taonga99,Austrian school of economics,/* Economists affiliated with the Austrian School */
2022-09-09T13:27:38+00:00,1109373319,1108888506,0,Oatco,Austrian school of economics,typo
2021-03-06T06:02:21+00:00,1010581347,1010580876,0,Meters,Austrian school of economics,Undid revision 1010580876 by [[Special:Contributions/157.100.76.237|157.100.76.237]] ([[User talk:157.100.76.237|talk]])
2008-08-01T11:03:56+00:00,229204543,228404284,0,DumZiBoT,Austrian school of economics,"Bot: Converting bare references, using ref names to avoid duplicates, see [[User:DumZiBoT/refLinks|FAQ]]"
2007-01-11T08:07:18+00:00,99951468,99463324,0,172.166.134.175,Austrian school of economics,/* See also */
2008-02-23T04:25:35+00:00,193426749,193174443,0,Error -128,Austrian school of economics,[[WP:UNDO|Undid]] revision 189368398 by [[Special:Contributions/Anawasm|Anawasm]] ([[User talk:Anawasm|talk]]) removed link spam
2007-09-01T06:31:26+00:00,154968589,154957017,0,Pairadox,Austrian school of economics,Blogs don't meet [[WP:EL]]
2006-09-12T05:55:03+00:00,75237110,75236746,0,Phelbich,Austrian school of economics,/* Critics */
2013-01-17T02:48:05+00:00,533467517,533466634,0,EconomicIllusions,Austrian school of economics,/* Inflation */
2008-11-26T15:31:38+00:00,254239728,253950052,0,Bastin,Austrian school of economics,Category
2008-02-05T22:56:38+00:00,189368398,188770265,0,Anawasm,Austrian school of economics,
2013-05-07T19:45:19+00:00,554009664,553983720,0,Keylar25,Austrian school of economics,Undid revision 553980123 by [[Special:Contributions/SPECIFICO|SPECIFICO]] ([[User talk:SPECIFICO|talk]]) Austrian economists are highly critical of Keynesian economists. Changing the phraseology properly reflects reality.
2006-04-29T03:36:30+00:00,50688335,49610887,0,YurikBot,Austrian school of economics,robot  Adding: [[pl:Szkoła austriacka]]
2008-10-05T16:37:52+00:00,243207683,243077790,0,69.134.83.198,Austrian school of economics,Direct link chicago school of economics
2006-01-09T06:02:48+00:00,34463819,34382145,0,YurikBot,Austrian school of economics,robot  Adding: fr
2007-11-13T19:11:57+00:00,171258883,170663965,0,SeekFind,Austrian school of economics,/* Economists affiliated with the Austrian School */
2005-11-01T02:01:12+00:00,27029570,26502150,0,RBrancusi,Austrian school of economics,"Adding of name of Lionel Robbins as ""Other related economists"""
2022-08-05T05:34:50+00:00,1102460300,1102460172,0,Aidan9382,Austrian school of economics,/* Empirical objections */ Correct author in citation from current generic name
2006-03-27T21:54:34+00:00,45760803,45329358,0,72.10.241.40,Austrian school of economics,/* Major Austrian economists */
2014-04-03T04:56:51+00:00,602526715,599346356,0,Atethnekos,Austrian school of economics,/* Split among contemporary Austrians */ ce
2007-02-10T18:00:13+00:00,107117970,106357200,0,JayJasper,Austrian school of economics,/* Economists affiliated with the Austrian School */
2006-07-27T22:26:32+00:00,66244465,66244034,0,The morgawr,Austrian school of economics,/* Contributions */ move Wicksteed discovery after Bohm-Bawerk as it used his discovery that the law of costs was a special case of the law of marginal utility
2008-10-03T03:03:48+00:00,242659320,242301220,0,DOI bot,Austrian school of economics,Citation maintenance. Formatted: pages.  You can [[WP:DOI|use this bot]] yourself! Please [[User:DOI_bot/bugs|report any bugs]].
2006-04-09T10:35:13+00:00,47683060,47556181,0,YurikBot,Austrian school of economics,robot  Modifying: [[sk:Rakúska ekonomická škola]]
2021-01-13T14:37:27+00:00,1000089193,996498255,0,Nikopolos,Austrian school of economics,/* Split among contemporary Austrians */
2007-04-21T17:44:28+00:00,124644152,124137708,0,Twas Now,Austrian school of economics,boldface
2006-02-25T03:35:54+00:00,41114897,40312193,0,68.33.47.73,Austrian school of economics,/* Major Austrian economists */
2012-02-24T03:22:09+00:00,478544619,478352131,0,Fortheloveofbacon,Austrian school of economics,
2006-06-13T03:16:42+00:00,58325822,58234459,0,Dan1679,Austrian school of economics,Reverted edits by [[Special:Contributions/137.208.99.222|137.208.99.222]] ([[User_talk:137.208.99.222|talk]]) to version 58230271 by 24.91.183.219 using [[WP:VandalProof|VandalProof]]
2006-10-12T06:43:31+00:00,80964742,80919784,0,Robocracy,Austrian school of economics,/* Analytical framework */
2018-05-01T21:12:43+00:00,839189900,839189731,0,SheriffIsInTown,Austrian school of economics,Rescuing 45 sources and tagging 0 as dead. #IABot (v1.6.5)
2011-11-29T21:44:58+00:00,463177025,462853347,0,HiW-Bot,Austrian school of economics,r2.7.2) (Robot: Adding [[hr:Austrijska škola]]
2005-11-18T01:56:29+00:00,28637192,28636956,0,64.231.45.27,Austrian school of economics,typos
2015-05-09T10:48:13+00:00,661536616,659307256,0,46.127.30.200,Austrian school of economics,
2011-05-01T00:54:26+00:00,426813295,425224297,0,POTA,Austrian school of economics,/* Methodology */ Added picture
2006-12-30T04:19:51+00:00,97276601,97142358,0,Lia Todua,Austrian school of economics,
2009-05-26T00:00:55+00:00,292328673,292095431,0,Legobot III,Austrian school of economics,Bot: Maintaining protection tags
2015-03-13T21:02:21+00:00,651243857,651238976,0,91.122.9.127,Austrian school of economics,/* Inflation */
2006-08-17T21:32:30+00:00,70303748,69174976,0,Fephisto,Austrian school of economics,radical seemed POVed
2007-01-19T18:26:39+00:00,101830231,101822348,0,Rdfuerle,Austrian school of economics,External link added.
2008-04-05T13:40:25+00:00,203516571,203246956,0,Larklight,Austrian school of economics,re-ordered
2008-08-17T03:48:52+00:00,232431141,232431074,0,72.70.28.55,Austrian school of economics,
2006-08-04T18:05:06+00:00,67676389,66541421,0,69.47.137.127,Austrian school of economics,/* History */
2010-04-19T00:12:24+00:00,356884833,356845701,0,210.9.82.209,Austrian school of economics,/* Methodology and economic prediction */ He's NOT an economist
2013-10-02T02:48:39+00:00,575382157,575141539,0,Matthew Proctor,Austrian school of economics,wikify
2009-01-12T11:21:24+00:00,263566685,263562511,0,122.105.45.1,Austrian school of economics,Reverted edits from what appears to be an irrational critic of Austrian School who compares it to witchcraft and has labelled it a pseudoscience.
2008-05-31T21:56:58+00:00,216268197,216205115,0,Ethilien,Austrian school of economics,"/* Criticism */ corrected grammar, changed ""theories too much"" to ""theories much to"""
2010-07-19T20:21:47+00:00,374365066,374323122,0,38.96.165.241,Austrian school of economics,fixed title in reference
2019-06-04T13:48:42+00:00,900262889,897158878,0,Shenme,Austrian school of economics,"/* Opportunity cost */[[WP:AWB/T|Typo fixing]], replaced: McMillan → Macmillan"
2012-01-02T16:55:29+00:00,469150715,469051529,0,69.255.153.126,Austrian school of economics,m
2009-08-01T06:15:43+00:00,305412182,305397792,0,122.104.51.130,Austrian school of economics,"OK, but at least get the links right"
2011-04-18T09:43:52+00:00,424661861,424660828,0,Bsadowski1,Austrian school of economics,Undid revision 424660828 by [[Special:Contributions/Bsadowski1|Bsadowski1]] ([[User talk:Bsadowski1|talk]]) - What the heck..
2008-01-12T04:25:55+00:00,183781116,183722691,0,68.190.155.177,Austrian school of economics,
2006-04-30T19:54:56+00:00,50931553,50929949,0,Bluemoose,Austrian school of economics,rm material of questionable merit
2008-07-26T03:47:28+00:00,227950585,227768224,0,AdultSwim,Austrian school of economics,Duplicate Named References
2010-07-24T11:36:26+00:00,375197526,374849143,0,Amadeus226,Austrian school of economics,"Removed Jim Rogers, couldn't find a valid source stating that he is an Austrian economist. He clarified in a video saying that he is a market fundamentalist."
2006-03-22T14:42:33+00:00,44953778,44754901,0,80.91.145.193,Austrian school of economics,/* History */
2005-12-21T06:27:39+00:00,32207397,32080146,0,JBHD,Austrian school of economics,/* External links */
2019-06-24T23:54:00+00:00,903314376,902659869,0,95.239.48.150,Austrian school of economics,/* Criticisms */
2008-05-07T15:37:35+00:00,210824781,210497440,0,Andonic,Austrian school of economics,"[[WP:MOS]] fixes, Replaced: &mdash;  → &mdash; (3)  using [[Project:AutoWikiBrowser|AWB]]"
2006-01-15T20:42:39+00:00,35308746,34463819,0,Sean chile,Austrian school of economics,"removed ""von"" from Hayek's name (he didn't use it after age 20)"
2013-02-14T14:48:20+00:00,538232015,538231902,0,Mark Arsten,Austrian school of economics,Fix template
2007-12-30T05:13:41+00:00,180928817,179542237,0,99.135.163.148,Austrian school of economics,/* Criticism */  anonymous citation removed
2011-10-03T00:39:45+00:00,453616297,453484697,0,LCE1506,Austrian school of economics,/* Methodology */ lce: sentence structure
2012-04-01T21:05:41+00:00,485051537,484152665,0,SD5bot,Austrian school of economics,BOT: replacing template(s) per [[Template talk:Spaced ndash#Requested_move|discussion about misleading template name]]
2019-11-26T10:13:20+00:00,928032033,927970980,0,Ian.thomson,Austrian school of economics,"Undid revision by [[Special:Contributions/RandyAndyPandy|RandyAndyPandy]] - Forbes is reliable, Forbes CONTRIBUTORS are not.  The latter is a blog service, not Forbes itself."
2008-05-23T22:33:15+00:00,214517636,214361177,0,LemmeyBOT,Austrian school of economics,Combined Duplicate Refs into Named Refs
2005-09-09T14:31:28+00:00,22910806,22797188,0,Leandrod,Austrian school of economics,Typogr.
2008-06-08T22:30:31+00:00,218046308,217378843,0,Fubar Obfusco,Austrian school of economics,"/* History */ grammar fixup re: Ron Paul. Note, still probably needs factual confirmation."
2005-12-06T16:22:03+00:00,30355801,30153044,0,211.28.60.226,Austrian school of economics,/* Other related economists */
2017-06-28T23:39:21+00:00,788012673,788012485,0,50.0.113.180,Austrian school of economics,/* First Wave */
2016-06-03T13:15:47+00:00,723509641,723509560,0,The Anome,Austrian school of economics,Reverted edits by [[Special:Contribs/The Anomebot2|The Anomebot2]] ([[User talk:The Anomebot2|talk]]) to last version by Cydebot
2011-03-13T00:25:18+00:00,418536910,415655327,0,ChuispastonBot,Austrian school of economics,r2.7.1) (robot Adding: [[gl:Escola Austríaca de Economía]]
2006-12-09T06:24:29+00:00,93102746,90552556,0,147.9.44.84,Austrian school of economics,
2008-08-14T15:25:48+00:00,231918328,231917976,0,86.49.12.95,Austrian school of economics,/* History */
2012-03-22T03:31:47+00:00,483304662,482425916,0,Jweiss11,Austrian school of economics,/* Theories */ caps
2006-04-11T08:52:37+00:00,47927659,47683060,0,69.12.144.24,Austrian school of economics,
2008-09-22T05:44:24+00:00,240167750,240149127,0,201.255.189.232,Austrian school of economics,/* Seminal works */
2008-10-01T18:23:18+00:00,242301220,242137609,0,75.46.53.51,Austrian school of economics,"My first edit from this IP, not my first edit. The information is only valid assuming it's correct, which it isn't."
2011-03-17T19:51:59+00:00,419347657,418536910,0,Δ,Austrian school of economics,Cleanup
2007-11-11T02:15:56+00:00,170663965,170419295,0,Creativename,Austrian school of economics,/* History */ (Replaced comma with period.)
2010-12-08T11:00:29+00:00,401230952,400638493,0,58.165.6.113,B. A. Santamaria,/* Traditionalism in the Catholic Church */
2009-07-23T20:46:00+00:00,303808029,300572427,0,58.171.195.190,B. A. Santamaria,/* Anti-Communism and Pro-Family */
2018-04-08T20:25:09+00:00,835455105,831601282,0,Emendment,B. A. Santamaria,/* Catholic Worker movements */ grm.
2020-05-20T01:59:59+00:00,957684871,957684725,0,RandomCanadian,B. A. Santamaria,Reverted 1 edit by [[Special:Contributions/14.200.92.207|14.200.92.207]] ([[User talk:14.200.92.207|talk]]) to last revision by Tullyvallin ([[WP:TW|TW]])
2009-11-13T23:19:36+00:00,325706889,310796787,0,203.173.13.59,B. A. Santamaria,
2011-10-22T19:12:57+00:00,456869094,453614612,0,Philip Cross,B. A. Santamaria,/* Anti-communist and social conservative */ lower case
2014-08-16T12:29:20+00:00,621479479,604868967,0,Ohconfucius,B. A. Santamaria,"[[User:Ohconfucius/script|Script]]-assisted fixes per [[WP:TIES]], [[MOS:NUM]], [[MOS:LINK]]"
2013-11-23T17:32:52+00:00,582975725,582937385,0,Rms125a@hotmail.com,B. A. Santamaria,Undid revision 582937385 by [[Special:Contributions/Ewawer|Ewawer]] ([[User talk:Ewawer|talk]]) rv unexplained deletion of text; editor's actions do not match edit summary
2019-02-01T08:04:15+00:00,881237461,866990215,0,2001:8003:5813:2A00:81F1:2F7D:FB3:57E2,B. A. Santamaria,/* Early and family life */
2010-05-09T20:44:15+00:00,361145373,349186054,0,86.45.164.134,B. A. Santamaria,
2016-09-10T07:40:22+00:00,738650524,737038498,0,Sunwin1960,B. A. Santamaria,
2013-04-22T13:39:43+00:00,551628409,542397963,0,JustAGal,Bad Boy,"Disambiguated: [[Peter Robinson]] → [[Peter Robinson (novelist)]], [[George W. Peck]] → [[George Wilbur Peck]]"
2005-11-04T15:33:04+00:00,27356840,21931433,0,Thewayforward,Bad Boy,"{{wiktionarypar|}}, [[Bad Boys]]"
2005-12-14T03:10:21+00:00,31281633,30988296,0,Amchow78,Bad Boy,"added ""Bad Boy Furniture"""
2010-04-17T01:26:30+00:00,356506712,350665688,0,GoingBatty,Bad Boy,Added Keshia Chanté song
2014-02-09T13:59:29+00:00,594669239,551628409,0,Hanswar32,Bad Boy,/* Other uses */
2022-01-05T19:59:51+00:00,1063953181,1063953073,0,Swpb,Bad Boy,
2014-11-27T17:42:31+00:00,635670109,635669873,0,Bkonrad,Bad Boy,Reverted edits by [[Special:Contribs/Melanhead1|Melanhead1]] ([[User talk:Melanhead1|talk]]) to last version by ClueBot NG
2008-08-05T21:20:45+00:00,230065596,155182776,0,Exxolon,Baileys,rmv redlink
2006-01-06T00:03:20+00:00,34040975,16263776,0,Jcon95482,Baileys,
2014-12-21T07:25:25+00:00,639016178,639016138,0,Northamerica1000,Balti (food),/* References */ rw: {{reflist|30em}}
2019-07-24T19:12:13+00:00,907710630,898049559,0,Fluffernutter,Balti (food),/* Balti houses */ fix link
2006-04-17T12:04:36+00:00,48832466,48741883,0,TharkunColl,Balti (food),rv. Newcastle is a red herring
2009-09-02T11:48:39+00:00,311454672,311199329,0,89.255.2.239,Balti (food),"rm note about Muslimgauze (20:12, 7 April 2006 by Pinkville): even though I like the artist, that useless bit of trivia should not be included here"
2015-11-16T10:57:24+00:00,690897658,690897488,0,Chiswick Chap,Balti (food),/* top */ ce
2022-04-04T13:46:27+00:00,1080959927,1071716132,0,Mr. Laser Beam,Bank run,
2006-09-28T10:34:42+00:00,78280517,78280467,0,ST47,Bank run,"would be nice if i Was AWAKE, no?"
2016-11-02T03:32:23+00:00,747392339,739621203,0,208.106.59.48,Bank run,"Deleted ""Deposit"" from ""Deposit withdrawals"".  Conflicting words.  ""Deposit"" means to put in.  Should maybe say, ""Fund withdrawals""."
2013-03-28T11:59:52+00:00,547431724,546282236,0,4aeus,Bank run,/* Depictions in fiction */
2018-04-14T10:17:42+00:00,836366451,833950454,0,Deeday-UK,Bank run,"pictures rearranged, resized per [[WP:THUMBSIZE]]"
2018-08-17T03:41:45+00:00,855273094,849391952,0,219.76.191.92,Bank run,/* History */
2006-05-03T18:32:05+00:00,51398109,51378659,0,Gaius Cornelius,Bank run,Revert vandalism.
2013-05-21T14:44:50+00:00,556112147,547431724,0,Panic1933,Bank run,/* History */ Added a more elaborate discussion of bank runs in the U.S. during the Depression. Pointed out the significance assigned to them by Friedman and Schwartz.
2005-07-21T04:01:02+00:00,19278086,16519352,0,141.151.163.176,Bank run,
2016-06-07T20:24:55+00:00,724209273,724048005,0,Dcirovic,Bank run,refs using [[Project:AWB|AWB]]
2017-04-28T05:00:10+00:00,777606807,771272503,0,AvalerionV,Bank run,v1.42b - [[WP:WCW]] project (Link equal to linktext)
2019-10-24T21:35:14+00:00,922874064,922691214,0,82.209.131.21,Bank run,/* History */
2006-08-28T19:48:29+00:00,72451235,72451140,0,68.39.174.238,Bank run,"Having read the book, I don't remember it going that far..."
2012-11-06T01:57:44+00:00,521604466,518009982,0,Uncreative Username 37,Bank run,hyphen/dash fixment
2017-01-27T15:32:02+00:00,762240808,762240716,0,2607:FCC8:9008:7E00:2095:5748:C67E:2287,Bank run,/* Depictions in fiction */
2006-01-01T06:20:47+00:00,33455124,32238853,0,Roadrunner,Bank run,remove statement on gold standard
2006-08-06T06:55:27+00:00,67964265,64926959,0,Novacatz,Bank run,sneakers
2012-01-07T18:26:39+00:00,470119336,465854538,0,Patsw,Bank run,/* History */ copyed
2014-06-10T06:41:47+00:00,612318857,595500730,0,78.93.67.74,Bank run,/* History */
2020-03-21T03:58:20+00:00,946590437,945531413,0,Qwertyxp2000,Bank run,"Adding local [[Wikipedia:Short description|short description]]: ""Mass withdrawal of money from banks"", overriding Wikidata description ""banking crisis when many clients withdraw their money from a bank, because they believe the bank may cease to function in the near future"" ([[Wikipedia:Shortdesc helper|Shortdesc helper]])"
2012-03-17T12:54:08+00:00,482360504,480245114,0,Section6,Bank run,corrected year as stated in image description
2016-12-04T10:21:04+00:00,752957634,751709781,0,203.217.64.80,Bank run,
2006-06-02T20:56:46+00:00,56560132,55222953,0,75.3.154.103,Bank run,
2014-02-14T21:09:05+00:00,595500730,595497172,0,Widr,Bank run,[[Help:Reverting|Reverted]] edits by [[Special:Contributions/Sjfo;egef|Sjfo;egef]] ([[User talk:Sjfo;egef|talk]]) to last version by ClueBot NG
2007-03-26T14:49:52+00:00,118007732,116592870,0,Yellow Element,Bank run,Repairing link to disambiguation page - [[Wikipedia:Disambiguation pages with links|You can help!]]
2021-07-25T15:48:32+00:00,1035422895,1029885270,0,Whoop whoop pull up,Bank run,/* History */
2011-11-01T23:06:51+00:00,458545157,458120001,0,V.i.kk.1.n.g,Bank run,Bank Transfer Day ≠ Bank Run ; The Reference doesn't contain a single word about a Bank Run
2015-12-21T18:15:28+00:00,696215565,692298843,0,81.157.94.14,Bank run,/* Systemic banking crises */
2012-06-30T09:46:22+00:00,500027197,500027117,0,Ekren,Bank run,Reverted edits by [[Special:Contributions/117.224.242.63|117.224.242.63]] ([[User talk:117.224.242.63|talk]]) to last revision by RedBot ([[WP:HG|HG]])
2006-02-04T22:33:46+00:00,38207487,31209844,0,Loopy,Battle of Messines (1917),Category:Battles of the Western Front (WWI)
2012-03-29T03:27:50+00:00,484482354,479877803,0,Grant65,Battle of Messines (1917),"""British"" >>> Allied"
2016-01-08T23:41:56+00:00,698905188,698850023,0,Anotherclown,Battle of Messines (1917),"tweak order of sections, content doesn't usually come after the ""see also"" section per [[WP:LAYOUT]]"
2015-08-13T17:30:33+00:00,675938042,670545146,0,87.178.180.219,Battle of Messines (1917),
2020-11-13T10:34:31+00:00,988467243,977815826,0,2001:999:51:CEFC:4C6B:7AA8:190E:41C5,Billboard,/* Placement of billboards */
2018-10-02T16:34:58+00:00,862171063,862170990,0,Shellwood,Billboard,Reverted edits by [[Special:Contributions/DryToaster|DryToaster]] ([[User talk:DryToaster|talk]]) ([[WP:HG|HG]]) (3.4.4)
2010-07-28T00:17:06+00:00,375827767,375055956,0,81.214.68.90,Billboard,
2008-01-26T02:00:17+00:00,186943458,186943438,0,Radon210,Billboard,Reverted edits by [[Special:Contributions/69.112.192.131|69.112.192.131]] ([[User talk:69.112.192.131|talk]]) to last version by Pharaoh of the Wizards
2006-03-24T02:05:45+00:00,45199704,45199294,0,74.229.177.215,Billboard,/* Stadium billboards */
2010-03-15T12:50:50+00:00,349994271,349917573,0,124.125.10.203,Billboard,/* See also */
2017-11-14T01:07:39+00:00,810224198,810224144,0,Usernamekiran,Billboard,Reverted edits by [[Special:Contribs/43.252.234.230|43.252.234.230]] ([[User talk:43.252.234.230|talk]]) to last version by ClueBot NG
2016-12-17T18:07:23+00:00,755381498,754605541,0,73.252.208.41,Bioinformatics,Link was implicitly going to the www but  actually linking to wiki (bug fix)
2015-12-15T02:29:20+00:00,695297497,693682154,0,2605:6001:F048:8200:89DE:4B27:8D38:E3A9,Billboard,/* Notable billboards */Deleted a duplicate link
2022-08-04T04:57:42+00:00,1102256951,1094474957,0,76.94.196.222,Bioinformatics,/* Genetics of disease */
2009-01-28T16:36:58+00:00,266992928,266840813,0,Thorwald,Bioinformatics,/* Related fields */ +Comparative genomics
2008-09-12T15:21:49+00:00,237948285,237260702,0,Agricola44,Bioinformatics,/* Related topics */
2022-01-12T13:55:51+00:00,1065233590,1064705988,0,Amkilpatrick,Bioinformatics,/* Genetics of disease */ fixing CS1 errors: missing title
2013-08-07T14:30:40+00:00,567544441,567544328,0,67.113.109.4,Bioinformatics,/* Goals */
2010-08-02T04:12:48+00:00,376701433,376701213,0,61.6.1.38,Bioinformatics,/* Analysis of gene expression */
2021-03-13T02:22:11+00:00,1011831523,1011007836,0,SiberianCat,Bioinformatics,"Undid revision 1011007836 by [[Special:Contributions/NouVa|NouVa]] ([[User talk:NouVa|talk]]) bioinformatics research was the correct term - NouVa, please stop meddling with content when you can't improve it"
2021-02-10T18:34:28+00:00,1006039835,1002643664,0,Ego.Eudaimonia,Biological agent,/* External links */ Added educational resource on biological weapons
2007-02-15T19:26:32+00:00,108396009,108392420,0,Aude,Biological agent,Reverted edits by [[Special:Contributions/85.102.128.164|85.102.128.164]] ([[User talk:85.102.128.164|talk]]) to last version by Pzavon
2021-07-12T10:24:43+00:00,1033219547,1032009538,0,2409:4073:306:826:501:B338:F34E:495D,Biological agent,
2016-09-28T18:40:46+00:00,741630830,741630607,0,143.85.18.18,Biological agent,m
2008-11-20T02:35:48+00:00,252912305,252843894,0,Pzavon,Biological agent,"more complete reversion of vandalism and one misplaced edit, back to my last edit on 16 Nov 2008"
2008-02-06T20:17:31+00:00,189569766,189569719,0,FlyingLeopard2014,Biological agent,Reverted edits by [[Special:Contributions/216.79.181.102|216.79.181.102]] ([[User talk:216.79.181.102|talk]]) to last version by Oxymoron83
2012-02-29T16:48:39+00:00,479497974,479497836,0,140.139.35.250,Biological agent,Removed dubious statement. Could be replaced if reliable reference found.
2018-10-14T16:44:19+00:00,864025068,851880447,0,TheZMan337,Biological agent,
2015-05-31T23:48:56+00:00,664939127,664938952,0,50.48.221.185,Biological warfare,/* History */
2010-01-29T15:44:37+00:00,340731991,340715221,0,130.15.40.230,Biological warfare,
2018-09-12T05:34:13+00:00,859167251,854730817,0,163.47.149.230,Biological warfare,/* Modern BW operations */
2019-12-05T19:35:42+00:00,929427921,929276996,0,45.115.186.216,Biological warfare,/* History */
2017-06-09T18:06:02+00:00,784712296,784704430,0,El C,Biological warfare,Reverted edits by [[Special:Contribs/47.9.196.130|47.9.196.130]] ([[User talk:47.9.196.130|talk]]) to last version by Here2help
2013-06-28T12:19:10+00:00,561957101,555580641,0,Itbeso,Black flight,cleanup
2013-05-17T23:05:12+00:00,555580641,548607649,0,94.224.198.239,Black flight,
2022-05-29T10:38:34+00:00,1090409245,1088209216,0,JestCam,Black flight,
2014-01-11T08:39:25+00:00,590195002,590194914,0,Erebus Morgaine,Black flight,Reverted edits by [[Special:Contributions/124.149.72.209|124.149.72.209]] ([[User talk:124.149.72.209|talk]]) to last revision by Djodjo666 ([[WP:HG|HG]])
2020-05-01T02:46:58+00:00,954178384,954178347,0,DB1729,"Blackheath, New South Wales",Reverted 1 edit by [[Special:Contributions/101.112.112.116|101.112.112.116]] ([[User talk:101.112.112.116|talk]]) to last revision by 0blcsp ([[WP:TW|TW]])
2007-12-01T08:42:12+00:00,175013030,174091408,0,Tabletop,"Blackheath, New South Wales",/* History */
2015-03-10T00:42:11+00:00,650689683,643227938,0,203.191.193.2,"Blackheath, New South Wales",
2018-07-02T08:59:38+00:00,848499470,848496088,0,Dave Rave,"Blackheath, New South Wales","Undid revision 848496088 by [[Special:Contributions/49.180.143.211|49.180.143.211]] ([[User talk:49.180.143.211|talk]]) - it's been four years, no cite put in ?"
2022-06-25T13:50:01+00:00,1094944840,1089911991,0,Frey Lockyer,"Blackheath, New South Wales",/* Geography and climate */
2012-03-15T10:02:19+00:00,482000974,473810310,0,Quentin X,Blitz!,/* Production history */
2016-02-10T19:58:29+00:00,704301512,683125460,0,86.134.89.191,"Blackheath, New South Wales",/* History */
2018-04-06T21:50:45+00:00,835153218,797084558,0,87.244.94.23,Blitz!,/* Characters */Fixed typo
2005-09-15T15:02:44+00:00,23286644,23106257,0,DonJay,Blitz!,
2009-12-06T08:07:19+00:00,330027502,317999649,0,Tabletop,Blitz!,Spell corpral => corporal
2008-07-09T23:50:42+00:00,224688718,201960430,0,Kbthompson,Blitz!,avoid redirect
2011-03-22T18:18:42+00:00,420184022,410709058,0,Funandtrvl,Blitz!,[[:en:WP:CLEANER|WPCleaner]] 0.99 - Repairing link to disambiguation page - [[WP:DPL|(You can help)]] - [[Tour]]
2015-12-07T06:43:42+00:00,694123502,676492103,0,124.170.60.187,Bloody Sunday (film),
2017-04-12T22:42:08+00:00,775140497,775140436,0,82.4.178.56,Bloody Sunday (film),
2006-10-14T21:55:57+00:00,81471821,81466284,0,Blueduck77,Bloody Sunday (film),Revert to revision 79599757 dated 2006-10-05 05:38:23 by 82.54.78.19 using [[:en:Wikipedia:Tools/Navigation_popups|popups]]
2008-05-28T11:20:10+00:00,215477720,213140501,0,DOI bot,Bloody Sunday (film),Citation maintenance. You can [[WP:DOI|use this bot]] yourself! Please [[User:DOI_bot/bugs|report any bugs]].
2018-03-04T01:35:36+00:00,828674175,820652292,0,203.94.40.102,Bloody Sunday (film),
2019-08-23T22:33:19+00:00,912203398,911490848,0,FDW777,Bloody Sunday (film),add link
2015-08-17T10:35:58+00:00,676492103,674737255,0,LnrwhiIRE,Bloody Sunday (film),
2009-08-25T21:24:20+00:00,310044793,308060934,0,D'ohBot,Bloody Sunday (film),robot Adding: [[ar:الأحد الدامي (فيلم)]]
2021-02-20T15:56:24+00:00,1007911501,998957068,0,The Eloquent Peasant,Boilermaker,"Adding local [[Wikipedia:Short description|short description]]: ""Tradesperson who fabricates steel, iron, or copper into boilers"", overriding Wikidata description ""profession"" ([[Wikipedia:Shortdesc helper|Shortdesc helper]])"
2008-11-16T11:56:31+00:00,252141886,251037062,0,Treybien,Bloody Sunday (film),"/* External links */ removed stub tag, added category"
2009-07-16T00:51:51+00:00,302328575,296629689,0,Bryancpark,Boilermaker,updated metalworing navbox transclusion
2013-01-17T14:45:48+00:00,533534790,529382457,0,GR8DAN,Boilermaker,Added Metalworking nav box
2007-06-27T15:38:03+00:00,140973675,140660643,0,Purduelicensing,Boilermaker,/* Purdue Mascot */
2018-06-02T06:13:09+00:00,844042501,843352089,0,65.110.216.250,Boilermaker,Gender neutral term for occupation
2007-11-11T23:02:01+00:00,170842192,169774349,0,74.241.76.232,Boilermaker,
2012-01-02T17:54:15+00:00,469160670,460915064,0,CaroleHenson,Boilermaker,added a link for repiping
2017-12-26T22:41:51+00:00,817210806,817193919,0,Andy Dingley,Boilermaker,Reverted 1 edit by [[Special:Contributions/174.201.33.230|174.201.33.230]] ([[User talk:174.201.33.230|talk]]) to last revision by Jiten D. ([[WP:TW|TW]])
2015-09-29T23:14:40+00:00,683383929,678353539,0,Scewing,Boilermaker,/* References */ commonscat
2010-04-22T20:04:47+00:00,357685714,347298725,0,Xenobot,"Bromelton, Queensland","[[User:Xenobot/6|Bot]]) Removing external link per request and [[WP:SBL#Fallingrain.com|discussion]], gen fixes ([[User talk:Xeno|report errors?]]"
2017-06-11T13:32:54+00:00,785068415,752905905,0,JJMC89 bot,"Bromelton, Queensland","Migrate {{Infobox Australian place}} coordinates parameters to {{Coord}}, see [[Wikipedia:Coordinates in infoboxes]]"
2022-01-20T01:44:27+00:00,1066770267,1058353573,0,Downsize43,"Bromelton, Queensland",/* History */ add road
2018-02-02T08:58:55+00:00,823610901,815282568,0,124.186.206.153,Business cycle,"Spelling error: corrected ""expansin"" to ""expansion"""
2009-07-20T08:47:32+00:00,303098108,302185301,0,217.44.251.94,Business cycle,/* Explaining */
2015-02-05T09:40:10+00:00,645727794,642919688,0,165.138.41.100,Business cycle,
2008-03-24T21:46:21+00:00,200642746,200101310,0,Mdd,Business cycle,/* See also */U related link removed that is already plugged in 2 dozend articles
2006-02-28T02:47:06+00:00,41552937,41303637,0,Bordello,Business cycle,/* Marxist Views */  POV-- seems to me anyway
2013-03-28T11:35:22+00:00,547428943,547066607,0,Madhpan,Business cycle,
2017-09-26T21:33:36+00:00,802548143,798690903,0,ArguMentor,Business cycle,/* Classification by periods */ Juglar cycle link.
2006-04-24T15:28:26+00:00,49929607,49116882,0,Gene Nygaard,Bảo Đại,fix indexing
2012-09-02T00:41:23+00:00,510359008,510318057,0,LoneWolf1992,Bảo Đại,Fixed a mistake
2006-11-30T04:41:15+00:00,91087025,90503247,0,Biruitorul,Bảo Đại,/* Life in Exile */
2012-03-30T17:00:25+00:00,484720915,484720761,0,Noodleki,Bảo Đại,Undid revision 484720761 by [[Special:Contributions/Noodleki|Noodleki]] ([[User talk:Noodleki|talk]])
2019-10-19T08:35:43+00:00,922005502,922005424,0,Baokhang48812002,Bảo Đại,
2014-11-05T15:54:42+00:00,632569074,630788663,0,Jean-Jacques Georges,Bảo Đại,"no, he was still officially head of state until the 23 october referendum"
2014-03-11T18:50:36+00:00,599172229,593903716,0,Manxruler,Bảo Đại,/* Photos of Bảo Đại's summer palaces */ [[Category:Burials at Passy Cemetery]]
2020-02-06T07:55:01+00:00,939406141,939328550,0,Krd,Bảo Đại,
2020-03-10T00:25:48+00:00,944800920,939406141,0,124.197.55.28,Bảo Đại,"Added in 2 categories, & attempted to tidy up the text."
2018-11-30T08:09:36+00:00,871321417,869178489,0,唐吉訶德的侍從,Bảo Đại,
2006-06-29T10:29:14+00:00,61174809,61131070,0,84.249.8.36,Bảo Đại,/* Life in Exile */
2012-10-12T01:40:12+00:00,517306615,513933355,0,Braincricket,Campus of Iowa State University,Reverted edit(s) by [[Special:Contributions/173.81.122.15|173.81.122.15]] identified as test/vandalism using [[WP:STiki|STiki]]
2021-06-26T09:56:02+00:00,1030503829,1030499554,0,99to99,Bảo Đại,/* Marriages */
2012-06-23T12:33:50+00:00,498979665,498979355,0,Sun Creator,Campus of Iowa State University,/* Current buildings */[[WP:GENFIXES|General]] and [[WP:AWB/T|Typo fixing]] using [[Project:AWB|AWB]]
2006-09-12T21:50:46+00:00,75374331,75374257,0,HighNitrous,Campus of Iowa State University,/* Coover Hall */
2013-12-05T23:13:33+00:00,584765274,583870257,0,Coffee,Campus of Iowa State University,[[Help:Reverting|Reverted]] edits by [[Special:Contributions/Oriole85|Oriole85]] ([[User talk:Oriole85|talk]]) to last version by OgreBot
2018-03-24T15:52:54+00:00,832220000,832219297,0,Kelutral,Carlos Fitzcarrald,
2020-10-27T04:17:46+00:00,985653363,971854469,0,Gorthian,Carlos Fitzcarrald,/* Rubber baron */ remove image size specifications
2017-01-06T15:00:59+00:00,758618240,754682579,0,PhJ,Carlos Fitzcarrald,[[File:Carlos Fermín Fitzcarrald.jpg|thumb|Carlos Fermín Fitzcarrald at the age of 30]]
2019-09-14T22:29:32+00:00,915714762,907877150,0,Ed. Jishnu,Carlos Fitzcarrald,/* Rubber baron */
2009-11-15T19:05:10+00:00,326021473,321796182,0,Chelman,Carlos Fitzcarrald,Short bio expansion and link to article aboutFitzcarraldo.
2017-08-07T07:00:29+00:00,794314536,794138555,0,42.119.168.162,Central bank,/* History */
2014-10-11T13:51:43+00:00,629175512,629175489,0,Alexius08,Central bank,Reverted edits by [[Special:Contributions/180.151.147.18|180.151.147.18]] ([[User talk:180.151.147.18|talk]]): [[WP:SANDBOX|editing tests]] ([[WP:HG|HG]])
2012-03-28T15:45:56+00:00,484389429,482856192,0,Fred Bauder,Central bank,/* External links */
2008-05-04T07:28:07+00:00,210063126,207922681,0,59.103.58.130,Central bank,
2013-06-20T15:21:38+00:00,560761526,560752781,0,212.35.97.76,Central bank,
2018-12-13T14:39:27+00:00,873505018,870186560,0,Sasuke Sarutobi,Central bank,/* Quantitative easing */ Fixed grammar
2012-03-03T17:16:21+00:00,480004583,477867366,0,82.92.168.144,Central bank,/* Activities and responsibilities */
2008-11-23T05:38:56+00:00,253539932,253527898,0,71.202.65.243,Central bank,/* See also */ Cl.
2008-07-18T09:48:03+00:00,226417981,226417517,0,89.241.76.125,Central bank,
2013-01-03T06:53:29+00:00,531047710,525743932,0,Sky Harbor,Central bank,/* External links */ interwiki tl
2008-07-30T20:51:04+00:00,228882757,228788748,0,Paxsimius,Central bank,
2012-02-20T11:29:48+00:00,477867366,476980512,0,Maxí,Central bank,/* External links */ Added .is link
2019-10-26T07:46:18+00:00,923084215,923071540,0,2401:4900:B8A:A6E1:0:1F:F209:6101,Central bank,6001010
2006-10-20T18:32:48+00:00,82668724,82651347,0,McTrixie,Central bank,/* External links */ bfis website
2011-12-04T14:07:23+00:00,464042859,463917997,0,Artoasis,Central bank,Undid revision 463917997 by [[Special:Contributions/117.211.86.74|117.211.86.74]] ([[User talk:117.211.86.74|talk]]): please refer to the hidden comment
2013-11-22T09:06:07+00:00,582792685,576439563,0,61.91.41.182,CentralWorld,/* Upcoming Tenants */  Edited for grammar and style
2019-04-18T15:02:25+00:00,893036707,893036476,0,Makrom,CentralWorld,
2020-07-10T12:02:15+00:00,966981576,963764716,0,Magnamonkun,CentralWorld,/* Key tenants */
2019-05-13T09:03:13+00:00,896858997,893036707,0,ParadiseDesertOasis8888,CentralWorld,
2013-04-20T02:50:51+00:00,551226371,548569882,0,58.8.143.95,CentralWorld,correction - for verification see http://en.wikipedia.org/wiki/List_of_largest_shopping_malls_in_the_world
2006-07-21T21:47:48+00:00,65105661,0,0,Wisekwai,CentralWorld,To Central World Plaza.
2009-11-19T22:48:28+00:00,326819232,325483060,0,Updatehelper,CentralWorld,/* History */Original geocities.com/...  weblink is gone but has been mirrored & archived in october 2009. For any issue contact oocities AT googlemail DOT com using [[Project:AutoWikiBrowser|AWB]]
2007-10-21T10:52:57+00:00,166029205,163580858,0,88.90.161.117,CentralWorld,
2014-09-09T21:14:45+00:00,624858571,620305353,0,Canmav,CentralWorld,/* Key tenants */
2015-05-31T03:39:28+00:00,664805882,664802441,0,Imtaiki,CentralWorld,/* Facilities */
2020-06-27T21:45:10+00:00,964837957,875167411,0,Danielt998,Chatham Road,=> Chinese language template(s)
2011-12-15T10:41:06+00:00,465980106,385855181,0,Underwaterbuffalo,Chatham Road,
2018-12-24T07:44:51+00:00,875167411,748451301,0,Wtsvodka,Chatham Road,/* Chatham Road South */
2007-07-13T02:00:34+00:00,144310629,137596825,0,59.149.87.17,Chatham Road,
2009-10-29T00:30:56+00:00,322644325,295520270,0,ZhBot,Chatham Road,Robot: Automated text replacement  (-{{\s*(?:(?i)Template\s*:\s*)?[zZ]h(?:-c|-cp|-cpcy|-cpl|-cpw|-cw|-cpwl|-p|-s|-sp|-st|-stp|-stpw|-t|-tp|-tpw|-ts|-tsp|-tspj|-tspw)\s*\| +{{zh|)
2006-02-08T15:52:40+00:00,38774650,38586967,0,Pkchan,Chatham Road,See [[Talk:Des Voeux Road]].
2010-09-20T04:45:22+00:00,385855181,377478023,0,24.215.190.58,Chatham Road,
2006-04-11T00:22:20+00:00,47878818,47829435,0,Sangheili~enwiki,Chuck E. Cheese,/* Food Service */
2007-06-28T02:38:07+00:00,141091007,141020292,0,TypoBot,Chuck E. Cheese,"Manually assisted [[WP:AWB/T|Typo fixing]], Replaced: accordian → accordion  using [[Project:AWB|AWB]]"
2009-01-19T17:24:31+00:00,265109067,265082846,0,71.29.227.81,Chuck E. Cheese,/* Parodies */
2019-01-24T14:03:40+00:00,879959828,879958779,0,PCock,Chuck E. Cheese,Reverted edits by [[Special:Contribs/179.216.207.197|179.216.207.197]] ([[User talk:179.216.207.197|talk]]) to last version by Oshwah
2017-12-29T03:04:17+00:00,817548830,817548610,0,General Ization,Chuck E. Cheese,Reverted edits by [[Special:Contribs/108.253.240.97|108.253.240.97]] ([[User talk:108.253.240.97|talk]]) to last version by DietaryHeart82
2007-01-19T08:35:02+00:00,101751940,97557451,0,203.94.243.64,"Connaught Place, New Delhi",
2009-03-28T08:44:19+00:00,280177597,280177221,0,Ekabhishek,"Connaught Place, New Delhi",/* External links */
2013-10-25T19:01:51+00:00,578727758,578693410,0,Apparition11,"Connaught Place, New Delhi",[[Help:Reverting|Reverted]] edits by [[Special:Contributions/Akashchaubey007|Akashchaubey007]] ([[User talk:Akashchaubey007|talk]]) to last version by Laggan Boy
2014-03-27T05:08:19+00:00,601464464,601276392,0,Samitus mallicus,"Connaught Place, New Delhi",
2018-03-23T05:40:52+00:00,831996757,830339451,0,220.227.160.135,"Connaught Place, New Delhi",Pin Code Reference added
2021-09-18T09:44:46+00:00,1045018103,1044883825,0,M3M Group,"Connaught Place, New Delhi",/* Visitor attractions */
2013-12-23T12:14:38+00:00,587364102,587364065,0,KylieTastic,"Connaught Place, New Delhi",Removed missing (red-linked) image - deleted from Wikimedia Commons 13 December 2013
2010-07-17T00:18:00+00:00,373896358,366494279,0,Joe Schmedley,Cooperative education,/* Examples */
2018-03-23T02:42:36+00:00,831976539,831976358,0,Jabberjaw,Cooperative education,/* Specialized academic journals */ dead link
2007-07-11T03:47:11+00:00,143889133,139936261,0,LordAnubisBOT,Cooperative education,robot  Modifying: [[fr:Études coopératives]]
2011-04-16T23:08:23+00:00,424441314,423758068,0,SchuminWeb,Cooperative education,Added {{[[Template:citation style|citation style]]}} tag to article using [[WP:TWINKLE|TW]]
2015-09-25T17:48:18+00:00,682736441,682736299,0,Trinkiee,Cooperative education,/* Examples */ Citation added for University of Waterloo figures.
2009-05-11T00:47:47+00:00,289163264,288526760,0,71.58.250.4,Cooperative education,[[WP:UNDO|Undid]] revision 288526760 by [[Special:Contributions/65.172.46.29|65.172.46.29]] ([[User talk:65.172.46.29|talk]])
2021-10-17T12:55:46+00:00,1050374492,1047013409,0,85.67.139.110,Cooperative education,/* Delimitation to vocational training */Fixed mistake
2012-01-17T23:12:12+00:00,471950007,471931249,0,TracyMcClark,Counterfeit,Undid revision 471931249 by [[Special:Contributions/24.218.242.224|24.218.242.224]] ([[User talk:24.218.242.224|talk]])rm. one singled out POV example.
2015-07-03T20:59:31+00:00,669829093,669829039,0,Loftwyr,Counterfeit,/* Anti-counterfeiting */
2013-04-09T16:09:35+00:00,549531299,549524295,0,Widr,Counterfeit,[[Help:Reverting|Reverted]] edits by [[Special:Contributions/205.222.248.127|205.222.248.127]] ([[User talk:205.222.248.127|talk]]) to last version by 212.152.6.135
2018-10-31T13:33:21+00:00,866620120,866566884,0,Onel5969,Counterfeit,"Disambiguated: [[copycat]] → [[wikt:copycat]], [[luxury]] → [[luxury goods]], [[Hype]] → [[wikt:hype]]"
2007-06-05T22:58:16+00:00,136180020,135207366,0,74.101.87.110,Counterfeit,
2014-05-01T11:23:54+00:00,606610687,606000513,0,Jodosma,Counterfeit,"rm repetition of ""by"""
2010-09-10T16:59:28+00:00,384048960,378635383,0,91.156.254.185,Counterfeit,/* Counterfeiting of consumer goods */ - Mark USA-specific information as such
2008-06-29T12:44:11+00:00,222455915,220613678,0,SpBot,Crank (person),robot  Removing: [[gl:Crank]]
2013-12-08T12:37:35+00:00,585118411,579692027,0,82.9.176.129,Crank (person),This article reads like a barely-coherent rant
2022-03-01T16:08:25+00:00,1074687901,1056775846,0,MichaelMaggs,Crank (person),Per [[WP:SDSHORT]]
2007-04-14T21:24:45+00:00,122836453,122836435,0,MartinBot,Crank (person),BOT - rv [[Special:Contributions/172.131.222.118|172.131.222.118]] ([[User talk:172.131.222.118|talk]]) to last version by Dreftymac
2021-03-02T17:55:40+00:00,1009865957,1001993426,0,173.92.197.149,Crank (person),
2013-11-01T02:34:04+00:00,579692027,579691026,0,Just plain Bill,Crank (person),Reverted 1 edit by [[Special:Contributions/66.211.109.190|66.211.109.190]] ([[User talk:66.211.109.190|talk]]):  and how many of those links describe their subjects as cranks? ([[WP:TW|TW]])
2012-06-12T13:01:14+00:00,497217942,494357458,0,2001:18E8:2:1020:E536:BACE:BF38:5BEC,Crank (person),/* Common characteristics of cranks */ Changing to plural
2012-09-10T16:35:00+00:00,511711746,509738808,0,Populus,Crank (person),/* Common characteristics of cranks */ scare quote purge
2017-01-01T18:27:34+00:00,757781863,756771043,0,AndrewOne,Crank (person),
2021-02-01T07:44:49+00:00,1004145539,968526227,0,Clarityfiend,Crazy Love (1987 film),/* External links */ -category
2019-06-10T01:21:08+00:00,901153509,884949145,0,69.14.145.137,Crazy Love (1987 film),
2015-08-11T02:57:40+00:00,675522076,586665371,0,MagicatthemovieS,Crazy Love (1987 film),/* External links */
2008-06-04T18:26:02+00:00,217122913,216805075,0,80.31.128.183,Credit crunch,[[WP:UNDO|Undid]] revision 216805075 by [[Special:Contributions/82.25.156.26|82.25.156.26]] ([[User talk:82.25.156.26|talk]])
2009-11-30T19:02:10+00:00,328852699,328809965,0,90.206.71.211,Credit crunch,
2009-04-21T12:23:46+00:00,285219951,285219934,0,The Thing That Should Not Be,Credit crunch,Reverted edits by [[Special:Contributions/195.195.210.18|195.195.210.18]] to last revision by StaticGull ([[WP:HG|HG]])
2008-03-20T08:48:18+00:00,199553669,199553601,0,195.152.249.11,Credit crunch,/* External links */
2008-04-08T17:21:07+00:00,204254251,204102761,0,Gothbag,Credit crunch,
2011-07-07T05:37:02+00:00,438184666,438094431,0,94.175.239.226,Credit crunch,/* See also */
2009-04-11T10:42:51+00:00,283152676,283152451,0,Thrane,Credit crunch,Reverted edits by [[Special:Contributions/90.193.93.73|90.193.93.73]] to last revision by Ckatz ([[WP:HG|HG]])
2007-08-26T23:38:30+00:00,153838201,153211901,0,Patrickjolliffe,Credit crunch,"Change dates to absolute, not relative."
2011-03-14T21:50:12+00:00,418849398,418849360,0,Jimbo online,Credit cycle,Undid revision 418849360 by [[Special:Contributions/Jimbo online|Jimbo online]] ([[User talk:Jimbo online|talk]])
2020-01-03T23:27:51+00:00,933959794,933959112,0,Glane23,Credit cycle,Adding/improving reference(s)
2016-04-13T21:51:20+00:00,715128738,714849924,0,FeydHuxtable,Credit theory of money,/* Advocacy for a return to a gold standard or similar commodity based system. */ restore relevent pic
2019-05-27T09:31:31+00:00,899011976,898877347,0,FeydHuxtable,Credit theory of money,"/* Advocacy against the gold standard */ revert to centrist - sorry but it's absurd to say only the left opposes a return to gold standard, at least over the last 60 years, even much of the right does"
2018-01-17T06:36:39+00:00,820895039,820895025,0,DebtBeatingsWillContinueUntilMoraleImproves,Credit theory of money,
2009-01-31T18:36:49+00:00,267666326,267112847,0,GargoyleBot,Criticism of fractional-reserve banking,Update per [[Wikipedia:Templates for deletion/Log/2009 January 22|TfD]]
2009-10-21T16:40:20+00:00,321219578,320453349,0,Fratrep,Criticism of fractional-reserve banking,Repairing link to disambiguation page - [[Wikipedia:Disambiguation pages with links|You can help!]]
2010-05-12T01:37:51+00:00,361594235,360718277,0,Legobot II,Criticism of fractional-reserve banking,[[WP:BOT|BOT]]: Date maintenance tags and general fixes
2008-11-05T22:33:43+00:00,249923834,249923760,0,61.8.3.161,Criticism of fractional-reserve banking,/* Conventional economic analysis */
2007-08-19T07:34:18+00:00,152204302,152169146,0,220.101.166.4,Criticism of fractional-reserve banking,
2011-12-25T23:41:56+00:00,467679766,467382399,0,93.166.140.203,Criticism of fractional-reserve banking,/* Perpetual Insolvency and danger of a bank-run */ costumers -> customers
2007-02-08T20:17:20+00:00,106655793,106655697,0,23prootie,Currency,/* Proposed currencies */
2020-11-15T13:03:47+00:00,988821341,988791837,0,GenQuest,Currency,Cleaned up using [[WP:AutoEd|AutoEd]]
2020-02-22T09:01:16+00:00,942055810,942055731,0,Pikavoom,Currency,Undid revision 942055731 by [[Special:Contributions/Darshan k achar|Darshan k achar]] ([[User talk:Darshan k achar|talk]])
2008-06-10T05:05:30+00:00,218337825,218337818,0,Vishnava,Currency,Reverted edits by [[Special:Contributions/203.198.75.189|203.198.75.189]] to last version by Oroso (using [[WP:HG|Huggle]])
2020-12-15T00:52:23+00:00,994300875,991225061,0,Filedelinkerbot,Currency,Bot: Removing [[Commons:File:BilleteiNTER II.jpg]] ([[:File:BilleteiNTER II.jpg|en]]). It was deleted on Commons by [[:Commons:User:Pi.1415926535|Pi.1415926535]] (per [[Commons:Commons:Deletion requests/File:BilleteiNTER II.jpg]]).
2006-03-28T22:52:36+00:00,45919793,44777845,0,216.52.133.15,Danger Hiptop,/* Hiptop3 / Sidekick III */
2009-12-08T03:09:19+00:00,330378702,330110635,0,99.234.235.88,Danger Hiptop,/* Motorola Q700 (Hiptop/Sidekick Slide) (Danger/Motorola) */
2007-05-24T12:01:01+00:00,133154399,132788712,0,Disgracerpg,Danger Hiptop,corrected error
2008-06-29T21:23:14+00:00,222533963,222487145,0,Ehn,Danger Hiptop,Removed preposition
2016-05-05T03:21:28+00:00,718704178,718703279,0,J33ry,Danger Hiptop,formatting
2022-03-01T15:04:25+00:00,1074679402,1073652910,0,SergioFLS,Danger Hiptop,Added the Sidekick logo as well
2017-07-02T22:48:17+00:00,788691817,788691613,0,67.8.133.18,Danger Hiptop,/* Hiptop3/T-Mobile Sidekick 3 (Danger/Sharp) */
2012-07-11T16:57:44+00:00,501747210,500256196,0,Pauli133,Danger Hiptop,/* T-Mobile Sidekick 4G (Android/Samsung) */
2014-11-14T00:52:18+00:00,633743802,629083562,0,BreakfastJr,Darkside (Tim Minchin album),"Cosmetic changes, including putting song titles in quote marks (in accordance with [[MOS:TITLES]])"
2011-12-30T16:45:17+00:00,468621088,468620406,0,80.177.9.55,Darkside (Tim Minchin album),/* Notes */
2018-04-24T01:05:45+00:00,837952686,798981176,0,Jon Kolbert,Darkside (Tim Minchin album),Repairing [[Category:Music infoboxes with deprecated parameters|deprecated music infobox parameters]]
2015-03-19T02:22:34+00:00,652019385,652019198,0,174.62.255.120,Darkside (Tim Minchin album),/* Notes */
2018-03-11T22:57:22+00:00,829970537,827442985,0,Tellmeareyouthatsomebody,David Hanson (robotics designer),/* Public and media appearances */
2014-03-04T06:28:10+00:00,598068870,543923682,0,Mason Clegg,David Hanson (robotics designer),add David Hanson's inclusion in the nonfiction book about his work on the PKD robotic portrait
2009-10-14T08:27:35+00:00,319776896,319776704,0,Back ache,David Hanson (robotics designer),/* Work */ clarified frubbber
2016-03-19T01:08:59+00:00,710785385,704499576,0,Paul2520,David Hanson (robotics designer),Filled in three bare references with the help of [[:en:WP:REFILL|reFill]]
2009-02-12T06:55:40+00:00,270174812,253618100,0,Jamesontai,David Hanson (robotics designer),"[[WP:AWB/T|Typo fixing]], typos fixed: et al → et al. (2) using [[Project:AutoWikiBrowser|AWB]]"
2018-07-07T01:34:32+00:00,849170445,848772986,0,Editor2020,David Hanson (robotics designer),link
2006-04-27T03:23:47+00:00,50366679,50366412,0,TMC1982,David Hanson (robotics designer),
2012-06-05T13:03:51+00:00,496105416,428189936,0,Waacstats,David Hanson (robotics designer),Add persondata short description using [[Project:AWB|AWB]]
2010-09-28T00:32:46+00:00,387432419,384098113,0,68.83.241.61,David Hanson (robotics designer),/* Work */
2008-02-05T02:21:25+00:00,189173130,189162237,0,Murderbike,Death of Carlo Giuliani,/* Trial */ cleanup
2022-01-02T00:37:47+00:00,1063240017,1056837899,0,Cblast,Death of Carlo Giuliani,/* Legacy */ grammar correction
2019-10-13T07:19:54+00:00,921002425,919196496,0,199.247.42.202,Death of Carlo Giuliani,rm sps and associated content
2007-06-21T13:44:32+00:00,139666669,138744211,0,196.202.13.249,Death of Carlo Giuliani,/* A symbol */
2015-07-27T22:54:09+00:00,673379158,662825307,0,81.152.9.61,Death of Carlo Giuliani,
2021-07-28T06:30:16+00:00,1035880312,1035873598,0,Anaxial,Death of Carlo Giuliani,Reverted 1 edit by [[Special:Contributions/Godson18|Godson18]] ([[User talk:Godson18|talk]]) to last revision by Czar
2006-08-08T20:14:38+00:00,68466109,66789811,0,Ulpian,Death of Carlo Giuliani,"Some windows were intact, grammatical improvements made..."
2017-12-21T14:57:35+00:00,816468235,816468180,0,Irn,Deaths in 2006,Reverted edits by [[Special:Contribs/Irn|Irn]] ([[User talk:Irn|talk]]) to last version by DoctorKubla
2008-04-03T07:28:18+00:00,202995432,202875435,0,WWGB,Deaths in 2006,Reverted edits by [[Special:Contributions/74.236.112.190|74.236.112.190]] ([[User talk:74.236.112.190|talk]]) to last version by W guice
2020-04-20T13:48:51+00:00,952082735,831306185,0,Anarchyte,Deaths in 2006,"Removed protection from ""[[Deaths in 2006]]"": no longer required"
2007-02-26T22:43:02+00:00,111183738,111100494,0,WWGB,Deaths in 2006,rv
2009-04-09T16:58:35+00:00,282800128,281263463,0,Spidern,Deaths in 2006,/* External links */ transcluding common links
2020-12-18T19:05:40+00:00,995014065,992609422,0,IbexNu,Deaths in February 2006,/* February 2006 */
2006-09-01T21:24:20+00:00,73292483,72635864,0,Acctorp,Deaths in February 2006,
2009-02-17T09:22:41+00:00,271310163,271237944,0,Quentin X,Deaths in February 2006,/* 9 */ Repaired link to disambiguation page: [[Wikipedia:WikiProject Disambiguation|please help]]
2009-05-26T14:36:33+00:00,292445831,291829607,0,Docu,Deaths in February 2006,fmt headlines
2009-04-20T12:12:26+00:00,284999936,284999886,0,Docu,Deaths in January 2006,fmt
2020-08-30T01:24:39+00:00,975716078,969993040,0,Nikkimaria,Deaths in January 2006,ref
2006-04-01T04:52:19+00:00,46416241,46384058,0,Commander Keane bot,Deaths in January 2006,Robot-assisted disambiguation link repair ([[WP:DPL|you can help!]]): Polish
2008-11-04T06:37:29+00:00,249595522,244009722,0,196.206.228.196,Deaths in January 2006,/* 1 */
2008-10-08T22:42:37+00:00,244009722,239297575,0,196.217.193.23,Deaths in January 2006,/* 4 */
2007-08-06T11:35:22+00:00,149523850,149523815,0,SpuriousQ,Deaths in January 2006,Reverted edits by [[Special:Contributions/CumminsIs4TheBrave|CumminsIs4TheBrave]] ([[User talk:CumminsIs4TheBrave|talk]]) to last version by Wknight94
2011-06-21T12:57:41+00:00,435453859,434230111,0,131.175.62.218,Debt,
2010-10-17T16:25:21+00:00,391256986,391256419,0,Vrenator,Debt,Reverted edits by [[Special:Contributions/86.136.142.147|86.136.142.147]] ([[User talk:86.136.142.147|talk]]) to last revision by Ronz ([[WP:HG|HG]])
2022-01-05T09:26:01+00:00,1063867232,1060531899,0,Qwertyxp2000,Debt,Filled in 0 bare reference(s) with reFill 2
2014-04-03T20:16:19+00:00,602629033,602624833,0,Fat&Happy,Debt,rv linkspam
2014-10-27T21:33:01+00:00,631375956,626114176,0,Salix alba,Debt,fix % bug in <math> use \% to avoid parse errors
2019-03-28T04:50:09+00:00,889819952,889789384,0,C.J. Griffin,Debt,/* History */ Moving to more appropriate location
2009-07-23T15:00:45+00:00,303747307,299784036,0,Wavelength,Debt,/* See also */ adding 1 internal link: *[[Revolving account]] ([[WP:O]])
2012-09-17T14:43:12+00:00,513170109,511260592,0,JYBot,Debt,r2.7.1) (Robot: Adding [[jv:Utang]]
2013-03-04T16:06:41+00:00,542061096,542061075,0,Widr,Debt,Reverted edits by [[Special:Contributions/163.248.33.220|163.248.33.220]] ([[User talk:163.248.33.220|talk]]) to last revision by ClueBot NG ([[WP:HG|HG]])
2008-03-26T22:13:53+00:00,201165738,201165357,0,141.150.136.237,Debt,/* Types of debt */
2015-09-28T19:10:07+00:00,683192479,682084469,0,Ost316,Debt,Filled in 2 bare reference(s) with [[:en:WP:REFILL|reFill]] (); formatting: 2x heading-style (using [[User:Cameltrader#Advisor.js|Advisor.js]])
2017-11-13T23:11:07+00:00,810208098,810208068,0,Acebulf,Debt,Reverted edits by [[Special:Contributions/Wwwuzzup|Wwwuzzup]] ([[User talk:Wwwuzzup|talk]]) ([[WP:HG|HG]]) (3.3.2)
2008-04-05T03:44:57+00:00,203446299,203446180,0,CardinalDan,Debt bondage,Reverted 2 edits by [[Special:Contributions/58.107.171.116|58.107.171.116]] identified as [[WP:VAND|vandalism]] to last revision by [[User:189.1.128.82|189.1.128.82]]. using [[WP:TWINKLE|TW]]
2019-10-19T17:36:08+00:00,922057954,921149379,0,Rupert loup,Debt bondage,Alpha sort
2022-05-04T14:54:49+00:00,1086169157,1083551997,0,Kotskokos,Debt bondage,/* Europe */
2019-02-25T14:24:55+00:00,885028091,883071069,0,Rupertslander,Debt bondage,/* Usage of term */
2016-06-20T13:09:13+00:00,726165559,726164849,0,Compassionate727,Debt bondage,/* European Middle Ages */ Clean up
2013-05-08T05:21:44+00:00,554079057,541845685,0,93.166.22.168,Debt bondage,/* Americas */
2006-12-04T03:46:45+00:00,91924214,87112829,0,Green-Dragon,Debt bondage,moved [[Debt bondage]] to [[Debt Bondage]]
2009-03-03T05:22:56+00:00,274623580,274623432,0,Stars4change,Debt bondage,/* See also */
2012-03-09T17:01:47+00:00,481028169,481026816,0,Mtaylor848,Debt bondage,/* Historical examples */
2006-10-02T19:07:59+00:00,79091332,74305844,0,Darklilac,Debt bondage,/* Historical background to bonded labor */ viewd -> viewed
2007-03-14T11:53:42+00:00,115034068,114998518,0,131.165.153.76,Debt bondage,/* At international law */
2009-09-02T16:59:30+00:00,311499136,311498325,0,Dpnew,Dieppe Raid,Hyperlinked the RCHA.
2007-11-22T04:25:00+00:00,173045904,173045871,0,99.226.228.158,Dieppe Raid,/* Operation Jubilee */
2007-04-20T21:41:57+00:00,124468197,122175639,0,Springnuts,Dieppe Raid,/* Trivia */ add small but significant detail to name.
2010-02-03T19:53:42+00:00,341739812,341739082,0,Acather96,Dieppe Raid,Reverted edits by [[Special:Contributions/208.97.94.172|208.97.94.172]] to last revision by Tyw7 ([[WP:HG|HG]])
2021-09-27T22:50:57+00:00,1046890137,1045401102,0,174.0.48.147,Dieppe Raid,/* The Enigma pinch */
2011-09-18T11:38:12+00:00,451129195,449655816,0,Pawebster,Dieppe Raid,Improved English
2018-03-25T15:48:52+00:00,832369659,832369599,0,NewEnglandYankee,Dieppe Raid,Reverted edits by [[Special:Contribs/99.227.165.64|99.227.165.64]] ([[User talk:99.227.165.64|talk]]) to last version by ClueBot NG
2013-12-10T02:47:01+00:00,585376910,585376810,0,Urokugaeshi,Dieppe Raid,Undid revision 585375601 by [[Special:Contributions/Ajam31|Ajam31]] ([[User talk:Ajam31|talk]]) Vandalism
2008-02-20T20:03:43+00:00,192870589,192551995,0,Wwoods,Dieppe Raid,{{FixBunching|mid}}
2019-10-12T07:52:55+00:00,920845760,916343321,0,Faismeen,Dilli Haat,
2008-11-25T11:38:56+00:00,253988856,250822971,0,McGeddon,Dilli Haat,copyedit  using [[Project:AutoWikiBrowser|AWB]]
2010-10-23T07:01:39+00:00,392362579,388870027,0,PureR,Dilli Haat,Corrected the Delhi Tourism site link
2006-09-07T07:25:25+00:00,74291763,74291585,0,WarrenA,Dilli Haat,
2006-01-23T20:51:21+00:00,36403359,34542903,0,Merchbow,Dilli Haat,recategorised
2005-10-02T11:14:59+00:00,24552564,24552549,0,Rahuagra502,Dilli Haat,
2013-04-29T03:22:08+00:00,552664665,545437974,0,Shahhaaqeb,Dilli Haat,/* Different handicraft stalls at Dilli Haat */
2009-08-19T10:24:41+00:00,308855717,308855631,0,Wikik4,Dilli Haat,[[WP:UNDO|Undid]] revision 308668626 by [[Special:Contributions/122.163.113.227|122.163.113.227]] ([[User talk:122.163.113.227|talk]]) VANDALISM REMOVED
2011-01-06T05:07:25+00:00,406226649,392396766,0,Bradhall71,Donald Michie,Linked to Claude Sammut
2021-07-07T23:47:19+00:00,1032523694,1032522617,0,Indefensible,Donald Michie,Undid revision 1032522617 by [[Special:Contributions/Non-Normative Relation|Non-Normative Relation]] ([[User talk:Non-Normative Relation|talk]])
2018-04-30T11:38:34+00:00,838962623,817499936,0,Liverpoolpics,Donald Michie,
2018-09-16T21:04:02+00:00,859872352,838962623,0,Timrollpickering,Donald Michie,Moving from [[Category:People associated with Bletchley Park]] to [[Category:Bletchley Park people]] per [[Wikipedia:Categories for discussion/Log/2018 September 9]] using [[c:Help:Cat-a-lot|Cat-a-lot]]
2016-01-15T11:13:11+00:00,699942187,694980446,0,Earthowned,Donald Michie,Corrected doctoral students thesis citations #1Lib1Ref
2014-04-05T17:52:27+00:00,602892809,599846165,0,Waacstats,Donald Michie,/* External links */add persondata short description using [[Project:AWB|AWB]]
2017-03-31T04:49:50+00:00,773082689,754760435,0,Duncan.Hull,Donald Michie,
2020-01-20T22:00:10+00:00,936768283,936767859,0,Lcodyh803,Donald Michie,Reverted 2 edits by [[Special:Contributions/Acadlitedit|Acadlitedit]] ([[User talk:Acadlitedit|talk]]) ([[WP:TW|TW]])
2021-09-07T11:59:37+00:00,1042915992,1032523694,0,Neils51,Donald Michie,/* top */replaced: artifical → artificial
2007-01-15T15:00:31+00:00,100877791,97602557,0,Sb617,Eastern Suburbs railway line,repoint Eastern Suburbs & Illawarra link at top
2020-07-10T23:38:30+00:00,967070967,966988843,0,Fleet Lists,Eastern Suburbs railway line,Remove DAB
2018-05-30T12:22:47+00:00,843633595,843101551,0,Sjdhistorian,Eastern Suburbs railway line,/* The 1947 plan */
2015-06-08T03:54:47+00:00,665985657,664533653,0,Ashton 29,Eastern Suburbs railway line,/* 1976 review */
2005-11-29T06:08:49+00:00,29566377,28007081,0,Steven Fitter,Eastern Suburbs railway line,
2013-04-20T02:11:49+00:00,551222951,549207064,0,220.238.50.118,Eastern Suburbs railway line,
2006-05-02T16:47:10+00:00,51224833,48568327,0,JoeBot,Eastern Suburbs railway line,"typo fixing bot: just doing a little house cleaning,   using [[Wikipedia:AutoWikiBrowser|AWB]]"
2008-12-23T09:01:24+00:00,259690194,259503081,0,MrHarper,Eastern Suburbs railway line,/* Bradfield's Plans */ fix redlink
2017-08-09T21:08:43+00:00,794752726,794505145,0,HenryGarden1000,Economics of fascism,
2018-06-27T04:42:34+00:00,847695545,847695505,0,Jprg1966,Economics of fascism,/* Wartime policies: 1939–1945 */
2014-04-10T18:30:33+00:00,603631857,603631814,0,Excirial,Economics of fascism,Reverted edits by [[Special:Contributions/68.179.89.241|68.179.89.241]] ([[User talk:68.179.89.241|talk]]) ([[WP:HG|HG 3]])
2019-11-22T18:29:02+00:00,927471403,927270073,0,NinjaRobotPirate,Economics of fascism,"Fix lead to remove [[WP:REFERS|""refers to""]] formulation"
2006-09-30T18:12:07+00:00,78719897,77737067,0,Heqs,Economics of fascism,"it looks to me like whatever dispute there was died months ago, so i am removing the pov tags"
2022-02-27T00:24:37+00:00,1074200742,1072896219,0,109.93.195.2,Economics of fascism,
2020-04-21T14:41:42+00:00,952296239,952296130,0,Beyond My Ken,Economics of fascism,/* Bibliography */
2008-11-12T04:28:26+00:00,251268325,250565571,0,Phyrros,Economics of fascism,references were given a long time ago to support this form of the third paragraph; do not remove or radically change referenced statements
2012-07-03T05:04:38+00:00,500438828,500438238,0,96.226.241.82,Economics of fascism,/* Protectionism and syndicalism */
2022-10-20T05:20:51+00:00,1117150267,1117144760,0,Amerul,Economics of fascism,"the ""mainly to organizations within the Nazi Party"" phrase in the source refers to some public services, not to all things mentioned in this sentence"
2021-02-24T05:21:58+00:00,1008613654,1008612760,0,Amerul,Economics of fascism,"/* Family finances and permiso marital */ fixed verb tenses and changed ""since then"" to ""over the following years"" (they're not still ongoing today)"
2009-05-04T12:41:57+00:00,287834042,287833973,0,Excirial,Economics of fascism,Reverted edits by [[Special:Contributions/216.48.138.7|216.48.138.7]] to last revision by Excirial ([[WP:HG|HG]])
2020-11-18T07:29:15+00:00,989312293,982989388,0,Weareme234,Electronic City,
2008-11-17T01:01:45+00:00,252265485,252264263,0,71.65.50.250,Electronic City,
2019-05-18T06:40:56+00:00,897613559,894999803,0,CSPRABHU,Electronic City,/* Schools */
2016-11-17T22:25:31+00:00,750115971,750114754,0,Fuortu,Electronic City,post-move clean-up
2017-06-28T14:04:15+00:00,787941033,786556745,0,MikeLynch,Electronic City,rm per [[WP:INDICSCRIPT]]
2010-04-30T04:23:20+00:00,359197652,359197215,0,Raji ect,Electronic City,/* Churches in Electronic City */  Fixed invalid red link
2010-12-20T09:52:38+00:00,403325480,402544664,0,124.30.115.90,Electronic City,/* Industries */
2011-07-15T10:32:18+00:00,439598553,439598399,0,DerBorg,Electronic City,[[Help:Reverting|Reverted]] edits by [[Special:Contributions/Shikha bang|Shikha bang]] ([[User talk:Shikha bang|talk]]) to last version by DerBorg
2017-01-10T04:42:31+00:00,759264942,756142120,0,125.16.137.146,Electronic City,
2011-07-11T07:23:36+00:00,438870560,436267605,0,Vilimlendvaj,Eli M. Black,
2019-09-03T17:33:45+00:00,913859836,913096665,0,Patapsco913,Eli M. Black,/* Personal life and death */
2017-11-04T08:26:03+00:00,808658935,803315611,0,RichardBond,Eli M. Black,/* Business career */
2013-12-10T13:04:13+00:00,585427769,583609852,0,RevelationDirect,Eli M. Black,added [[Category:United Fruit Company]] using [[WP:HC|HotCat]]
2015-02-14T09:35:49+00:00,647076313,646265909,0,Paladin R.T.,Eli M. Black,
2014-10-04T19:08:38+00:00,628241568,622894746,0,GrahamHardy,Eli M. Black,"added [[Category:People from Woodmere, New York]] using [[WP:HC|HotCat]]"
2017-05-20T16:21:00+00:00,781336593,778755459,0,DiverDave,Embezzlement,copyedited text in lede section
2012-05-22T05:37:24+00:00,493779859,493777904,0,Sanya3,Embezzlement,
2017-05-05T02:02:49+00:00,778755459,770194269,0,2604:2D80:400E:86EA:5CFE:ADAE:1058:534B,Embezzlement,"==Tax consequences==
Proceeds of embezzlement must be included in gross income unless the embezzler repays the money in the same taxable year.<ref>James v. United States, 366 U.S. 213 (1961).</ref> Under U.S. tax law, lawful as well as unlawful gains a..."
2015-07-11T03:25:17+00:00,670919449,670919368,0,152.3.43.136,Embezzlement,
2011-02-05T11:46:38+00:00,412138673,411326069,0,Currentlybiscuit,Embezzlement,/* See also */
2010-02-02T16:19:57+00:00,341496764,341496632,0,64.39.133.148,Embezzlement,
2011-07-31T09:55:11+00:00,442332923,442330129,0,Waldyrious,Embezzlement,/* Embezzlement versus larceny */ +peculation
2016-07-27T19:21:58+00:00,731825502,731825377,0,GSS,Embezzlement,Reverted edits by [[Special:Contributions/2A02:C7D:7AE6:C500:15BD:4926:C0B1:9DA2|2A02:C7D:7AE6:C500:15BD:4926:C0B1:9DA2]] ([[User talk:2A02:C7D:7AE6:C500:15BD:4926:C0B1:9DA2|talk]]) ([[WP:HG|HG]]) (3.1.20)
2021-05-10T19:31:20+00:00,1022485405,1022071294,0,Government Man,Embezzlement,
2007-08-03T20:44:07+00:00,149003273,148540111,0,16@r,Embezzlement,/* See also */ +wikt
2010-07-24T01:53:11+00:00,375138321,370312190,0,Monterey Bay,Embezzlement,removing frivolous wording
2013-09-20T19:44:50+00:00,573820659,572704679,0,Mark Arsten,Embezzlement,Reverted 1 [[WP:AGF|good faith]] edit by [[Special:Contributions/Davey1000|Davey1000]] using [[WP:STiki|STiki]]
2018-05-02T13:39:00+00:00,839288132,839272307,0,Anita5192,Embezzlement,Undid revision 839272307 by [[Special:Contributions/2A02:C7D:622F:3B00:D9DB:EC74:F609:6059|2A02:C7D:622F:3B00:D9DB:EC74:F609:6059]] ([[User talk:2A02:C7D:622F:3B00:D9DB:EC74:F609:6059|talk]])Reverted [[Wikipedia:AGF|good faith]] edit:  this was more common wording before.
2013-07-02T22:45:35+00:00,562611753,560433128,0,96.55.129.83,Embezzlement,/* Embezzlement versus speculation */
2008-09-09T19:21:10+00:00,237345125,236844121,0,Sardanaphalus,Embezzlement,"updating link, possibly some formatting/rephrasings,  using [[Project:AutoWikiBrowser|AWB]]"
2007-03-23T13:21:49+00:00,117276309,116469137,0,Snowbot,Embezzlement,trashing [[:Category:Criminology topics]] per [[Wikipedia:Categories for discussion/Log/2007 March 17|CFD]]
2005-10-27T01:46:06+00:00,26581065,26580650,0,129.128.229.39,Embezzlement,Stylistic edits to improve flow.
2013-10-28T02:50:42+00:00,579048508,578074598,0,FChurca,Embezzlement,/* See also */
2005-12-24T17:08:46+00:00,32606489,26581065,0,YurikBot,Embezzlement,robot  Adding: is
2008-03-24T03:01:02+00:00,200448784,200117128,0,69.19.14.33,Embezzlement,/* Tax consequences */
2013-11-25T15:57:56+00:00,583247083,579048508,0,205.213.108.217,Embezzlement,/* See also */
2007-08-01T18:00:45+00:00,148540111,148173432,0,82.39.105.140,Embezzlement,
2020-08-27T08:28:08+00:00,975194731,975194624,0,Maevehg,Embezzlement,
2006-05-01T02:56:41+00:00,50988493,50811770,0,Cowpriest2,Embezzlement,bold reformat
2010-09-22T09:05:46+00:00,386271972,383055068,0,58.165.207.229,Embezzlement,
2016-11-12T14:53:21+00:00,749118967,749118070,0,Xyzspaniel,Embezzlement,Reverted 1 [[WP:AGF|good faith]] edit by [[Special:Contributions/180.190.102.205|180.190.102.205]] using [[WP:STiki|STiki]]
2007-08-29T14:37:54+00:00,154394255,153234411,0,76.222.195.206,Embezzlement,
2011-09-11T00:19:31+00:00,449641473,449594362,0,Palaeovia,Embezzlement,revert vandalism
2006-11-29T22:48:25+00:00,91016027,91012862,0,MichaelMaggs,Embezzlement,Revert to the revision prior to revision 91012862 dated 2006-11-29 22:36:20 by 209.193.20.19 using [[:en:Wikipedia:Tools/Navigation_popups|popups]]
2020-05-27T17:51:50+00:00,959217750,921764721,0,Enos733,Embezzlement,gender neutral term inserted
2019-01-17T03:04:52+00:00,878816997,876080924,0,Dwo,Embezzlement,"[[MOS:ANDOR]], op pl"
2010-05-20T23:36:42+00:00,363293034,359518856,0,Brentstrahan,Embezzlement,America isn't the only country you know.
2008-02-26T01:34:43+00:00,194072181,194071264,0,SorryGuy,Embezzlement,Reverted edits by [[Special:Contributions/118.67.216.52|118.67.216.52]] ([[User talk:118.67.216.52|talk]]) to last version by VoABot II
2022-04-27T22:34:50+00:00,1085012105,1085010428,0,Guettarda,Environmentalism,That seems excessively fringe
2019-03-29T13:09:54+00:00,890013792,888440476,0,Emersynn,Environmentalism,Corrected a capital letter
2021-02-09T14:37:18+00:00,1005807941,1005800859,0,Politanvm,Environmentalism,Reverted 1 edit by [[Special:Contributions/2402:8100:217A:EAD2:0:0:43D0:A992|2402:8100:217A:EAD2:0:0:43D0:A992]] ([[User talk:2402:8100:217A:EAD2:0:0:43D0:A992|talk]]) to last revision by MrOllie
2016-02-03T23:59:45+00:00,703179331,703179316,0,NYBrook098,Environmentalism,Reverted edits by [[Special:Contribs/209.174.94.2|209.174.94.2]] ([[User talk:209.174.94.2|talk]]) to last version by FourViolas
2009-03-27T18:07:17+00:00,280050232,279860687,0,Geller80,Environmentalism,corrected typo
2017-12-06T12:36:48+00:00,814014750,812660670,0,Jack006,Environmentalism,
2015-03-31T12:36:00+00:00,654330440,654313807,0,Vsmith,Environmentalism,/* Environmentalists */ alpha
2006-07-04T09:16:58+00:00,61993925,61354233,0,67.162.158.186,Environmentalism,/* External links */
2013-01-15T21:43:23+00:00,533264059,531356398,0,Pan Ioan,Environmentalism,pagina ro
2014-01-31T12:00:01+00:00,593265214,592330218,0,190.163.253.147,Estadio Nacional Julio Martínez Prádanos,"rm pov, ordered things properly"
2009-01-31T17:36:46+00:00,267656198,264543572,0,81.154.167.19,Estadio Nacional Julio Martínez Prádanos,/* Concerts */
2010-12-30T08:37:09+00:00,404962227,404027841,0,178.182.128.140,Estadio Nacional Julio Martínez Prádanos,/* Concerts */
2019-02-10T15:04:16+00:00,882652812,880008934,0,ScotlandLaddie04,Estadio Nacional Julio Martínez Prádanos,
2021-02-25T05:22:00+00:00,1008816070,1008814450,0,Introductorygh,Estadio Nacional Julio Martínez Prádanos,/* 1962 FIFA World Cup */
2018-05-10T01:54:10+00:00,840465409,836647756,0,Mr00Mister,Estadio Nacional Julio Martínez Prádanos,/* Concerts */
2016-09-07T07:59:00+00:00,738159055,738051766,0,190.44.8.252,Estadio Nacional Julio Martínez Prádanos,
2020-10-31T14:52:56+00:00,986386548,986386508,0,Grassynoel,Explaining Hitler,
2012-06-07T19:34:03+00:00,496487534,496465855,0,Renamed user U1krw4txwPvuEp3lqV382vOcqa7,Explaining Hitler,Good faith revert of edit(s) by [[Special:Contributions/86.88.15.125|86.88.15.125]] using [[WP:STiki|STiki]]
2016-04-04T10:49:49+00:00,713493610,701581667,0,203.10.91.84,Falls Festival,/* 1999 */
2021-11-08T05:45:23+00:00,1054122691,1050632933,0,ViperSnake151,Falls Festival,/* History */
2020-04-16T06:02:25+00:00,951245711,934854887,0,220 of Borg,Falls Festival,/* History */ Clean up/copyedit
2006-12-16T12:11:22+00:00,94691360,94690303,0,Chuq,Falls Festival,Undo revision 80716851 by [[Special:Contributions/AusMusicInfo|AusMusicInfo]] ([[User talk:AusMusicInfo|talk]])
2011-02-01T05:57:50+00:00,411327175,410746263,0,Pollygraph123,Falls Festival,
2019-12-30T08:51:28+00:00,933162236,930840195,0,27.99.42.78,Falls Festival,/* History */Fixed spelling error
2013-09-23T04:36:56+00:00,574137140,572904239,0,165.228.6.174,Falls Festival,Missing band from line up
2020-10-26T15:27:31+00:00,985541278,985452141,0,2001:8003:4067:8A01:2916:165A:AEE8:8BB5,Festival Hall (Melbourne),still exists
2008-03-08T17:53:06+00:00,196814469,194766002,0,UltraMaroon,Festival Hall (Melbourne),
2020-05-22T00:27:30+00:00,958108625,953030021,0,72.2.40.92,Festival Hall (Melbourne),
2010-05-05T00:12:26+00:00,360181161,360181047,0,Ian T,Festival Hall (Melbourne),/* As a concert venue */
2010-05-19T08:19:40+00:00,362970810,360181161,0,114.78.5.235,Festival Hall (Melbourne),/* As a concert venue */
2012-02-08T18:55:03+00:00,475804393,474170275,0,MathewTownsend,Explaining Hitler,isn't - > is not
2016-02-19T03:12:56+00:00,705712854,705712737,0,Radcliffe Kelso,Festival Hall (Melbourne),
2007-02-02T14:29:48+00:00,105094317,104149097,0,213.49.135.68,Fiat money,/* Notable Quotes */
2015-07-18T21:35:21+00:00,672045762,672001145,0,Ricky81682,Festival Hall (Melbourne),removed [[Category:Professional wrestling venues]] using [[WP:HC|HotCat]]
2009-12-21T18:39:21+00:00,333100464,333093183,0,Nroets,Fiat money,"[[WP:UNDO|Undid]] revision 333093183 by [[Special:Contributions/Diza|Diza]] ([[User talk:Diza|talk]]) because we cannot have every single thing ever said about money in ""See Also""."
2022-09-13T22:55:16+00:00,1110157455,1109202292,0,2601:204:DC00:C1B0:DD85:2B6E:DE48:4154,Fiat money,"rm spam citation Shueffel is a cryptocurrency shill who has been spamming this and a couple of other of his own sources on a whole bunch of articles, most inappropriately: FPGA"
2019-06-01T22:37:13+00:00,899873762,896625426,0,Alphathon,Fiat money,/* Money creation and regulation */ [[WP:DATESNO]]
2007-08-10T21:57:59+00:00,150479485,150194168,0,171.64.42.89,Fiat money,redirecting article reference for National Bank Act of 1863
2015-02-02T13:24:59+00:00,645303035,644895384,0,Vsmith,Fiat money,Reverted to revision 641844295 by [[Special:Contributions/Lawrencekhoo|Lawrencekhoo]] ([[User talk:Lawrencekhoo|talk]]): [[WP:Block evasion]]. ([[WP:TW|TW]])
2018-06-14T04:45:14+00:00,845790627,841667086,0,Volunteer1234,Fiat money,/* Definition */ goes in lead
2011-07-27T01:15:53+00:00,441634126,441610846,0,217.157.165.109,Fiat money,"/* Characteristics */ its legal, its just not legislated"
2012-07-23T02:53:12+00:00,503696088,503590710,0,180.94.237.39,Fiat money,/* Characteristics */ added internal link
2012-12-12T18:11:32+00:00,527733206,526986952,0,Kelisi,Fiat money,
2021-05-20T21:53:06+00:00,1024229478,1024229409,0,ArglebargleIV,Fiat money,Reverted edits by [[Special:Contributions/Vahidsvsss|Vahidsvsss]] ([[User talk:Vahidsvsss|talk]]): addition of unnecessary/inappropriate [[WP:EL|external links]] ([[WP:HG|HG]]) (3.4.10)
2010-12-20T14:37:01+00:00,403353977,396683369,0,Libertaar,Fiat money,
2012-03-19T19:17:32+00:00,482769093,480275206,0,70.231.234.42,Fiat money,/* History */ Additions to bolster historical section
2022-02-16T00:17:05+00:00,1072102141,1066642144,0,5.42.131.46,Fiat money,"Reality of the suspension was a default as a promise to pay all foreign the bearers of dollars in gold, was broken"
2022-07-04T16:20:11+00:00,1096459547,1093808259,0,185.104.137.32,Fiat money,
2011-08-27T15:28:57+00:00,446985191,446984947,0,Patsw,Fiat money,/* Loss of backing */ clarify WL
2022-04-04T06:49:56+00:00,1080916543,1077956626,0,46.253.36.76,Fiat money,
2017-10-24T03:18:31+00:00,806781027,805534644,0,RonBot,File:Michael Charlton.jpg,Orphaned non-free file(s) deleted per [[WP:F5|F5]] ([[User:RonBot/Run|disable]])
2018-03-18T13:09:42+00:00,831051446,823357421,0,Tikka Rao,Firozpur,
2009-05-14T01:04:00+00:00,289787906,287662721,0,61.2.188.84,Firozpur,/* Education */
2018-10-02T22:23:26+00:00,862215727,831051446,0,AssociateAffiliate,Firozpur,/* Notable people */
2020-06-21T08:05:25+00:00,963697087,963696846,0,122.60.171.248,Firozpur,Undid revision 963696846 by [[Special:Contributions/2405:204:329D:F8F3:C9A6:6F34:8161:D415|2405:204:329D:F8F3:C9A6:6F34:8161:D415]] ([[User talk:2405:204:329D:F8F3:C9A6:6F34:8161:D415|talk]]) revert [[WP:SELFPROMOTION]]
2017-02-07T08:36:08+00:00,764139374,763407043,0,Geof Sheppard,Flying Dutchman (train),/* Latter years */ clarification needed
2014-03-16T08:09:18+00:00,599833419,598345244,0,StratMan001,Firozpur,
2005-11-13T08:56:47+00:00,28193536,26745299,0,Bluebot,Firozpur,Standardising 1911 references.
2012-04-14T12:51:53+00:00,487331105,459323493,0,Slambo,Flying Dutchman (train),add categories
2011-06-04T22:06:44+00:00,432585653,420215863,0,Cholling,Fon,"Removed ""Freak of Nature"" entry -- uncited, links back to DA page, has no corresponding article"
2009-08-05T17:48:14+00:00,306245180,306032995,0,Iohannes Animosus,Fon,"[[WP:AWB/T|Typo fixing]], typos fixed: telecomunications → telecommunications using [[Project:AutoWikiBrowser|AWB]]"
2006-04-15T19:22:30+00:00,48601382,48600062,0,John Reed Riley,Fon,Improved description of Federation of Ontario Naturalists
2016-08-26T20:26:08+00:00,736340643,720540152,0,Ketiltrout,Fon,+; MOS:DAB
2013-08-23T18:40:55+00:00,569896238,540295753,0,Marcd30319,Fon,Freedom of navigation
2020-11-08T22:49:14+00:00,987735976,987276761,0,Editor2020,Food and drink prohibitions,italics
2010-09-23T14:52:40+00:00,386549603,386258656,0,H3llBot,Food and drink prohibitions,BOT: [[User:H3llBot/T2|Checking dead links]]; Added 2 archived Wayback links
2012-08-14T20:52:45+00:00,507433823,507430226,0,Havelock Jones,Food and drink prohibitions,/* Pigs/pork */ Added reference to Frazer view; arranged explanations roughly in order of chronology
2012-09-09T14:34:06+00:00,511540592,511504122,0,Havelock Jones,Food and drink prohibitions,Undid revision 511504122 by [[Special:Contributions/Adithyasriram|Adithyasriram]] ([[User talk:Adithyasriram|talk]]) Source says Kerala
2014-09-25T02:19:04+00:00,626975566,626941606,0,Editor2020,Food and drink prohibitions,"/* Camels */  not just a camel, all camels"
2010-03-01T17:33:57+00:00,347124549,347031836,0,94.3.4.86,Food and drink prohibitions,
2009-10-19T14:24:14+00:00,320799783,320797629,0,Elen of the Roads,Food and drink prohibitions,/* Deer and ungulates */ removed the unreferenced squeamish.
2008-08-10T07:25:01+00:00,230973828,230973712,0,125.60.243.90,Food and drink prohibitions,/* Alcohol */
2019-10-14T20:19:22+00:00,921260046,916806863,0,Primergrey,Ford Tempo,ce
2010-03-19T19:53:18+00:00,350846044,350533224,0,202.40.139.107,Food and drink prohibitions,/* Pigs/Pork */
2009-07-27T15:15:20+00:00,304489846,304487315,0,85.56.128.232,Food and drink prohibitions,
2017-09-05T18:17:37+00:00,799111690,798969618,0,Regushee,Ford Tempo,/* Development */
2017-01-19T07:11:21+00:00,760818345,760818303,0,Mr.choppers,Ford Tempo,/* First generation */ clarify
2016-09-19T16:27:53+00:00,740191277,737649808,0,Regushee,Ford Tempo,
2014-12-01T06:47:14+00:00,636135165,630997068,0,96.233.121.239,Ford Tempo,/* End of production */
2007-04-03T03:43:36+00:00,119892788,119890433,0,Sable232,Ford Tempo,rv vandalism by 74.245.200.36
2010-05-21T23:00:54+00:00,363464898,361145815,0,76.226.179.111,Ford Tempo,
2014-04-29T16:46:35+00:00,606352406,604716498,0,24.24.233.185,Ford Tempo,/* First generation */ removed contradiction from first paragraph
2007-09-28T21:05:18+00:00,160992940,159273774,0,IFCAR,Ford Tempo,
2012-08-16T12:42:28+00:00,507678721,507314730,0,116.49.158.2,Fractional-reserve banking,/* Justifications */
2012-05-29T12:33:12+00:00,494942966,493386484,0,Yandman,Fractional-reserve banking,"/* Criticisms */  rv quote from ""the international jew"" - see talk page, countless previous reverts etc"
2007-10-10T16:35:16+00:00,163593179,162581004,0,166.109.0.178,Fractional-reserve banking,/* Example */
2007-10-20T05:16:52+00:00,165785567,165388990,0,59.92.143.253,Fractional-reserve banking,/* Example */
2018-10-28T11:42:25+00:00,866122467,864966455,0,Tajotep,Fractional-reserve banking,
2011-08-07T13:23:07+00:00,443505198,443497136,0,88.65.184.131,Fractional-reserve banking,Undid revision 443497136 by [[Special:Contributions/120.16.84.222|120.16.84.222]] (vandalism)
2006-09-16T17:22:54+00:00,76076920,75894755,0,152.163.100.139,Fractional-reserve banking,/* Deposit creation multiplier */
2012-08-23T07:19:31+00:00,508741368,508725308,0,Jkl,Fractional-reserve banking,/* History */
2007-06-25T14:51:02+00:00,140530631,140343653,0,68.19.222.62,Fractional-reserve banking,/* Criticisms */
2008-03-22T20:07:00+00:00,200136961,199947574,0,OsamaBinLogin,Fractional-reserve banking,/* How it works */  clarifications in the early sections through more common language
2013-11-29T05:30:13+00:00,583750107,580968092,0,Lowercase sigmabot,Fractional-reserve banking,Removing protection templates) (bot
2006-07-12T20:29:10+00:00,63473374,60498632,0,166.77.6.4,Fractional-reserve banking,/* Criticism of banks and bank loans */
2016-08-12T05:53:02+00:00,734109158,733101460,0,87.218.8.96,Fractional-reserve banking,"{{more footnotes|date=May 2014}}  todo bien, get real WIKI"
2005-09-10T01:43:42+00:00,22947441,22947332,0,139.55.25.167,Fractional-reserve banking,/* Criticism of Fractional-Reserve Banking */
2021-09-14T06:26:41+00:00,1044228291,1044223920,0,2603:9001:510A:C000:A95D:7887:1BA:AD87,Fractional-reserve banking,
2020-04-06T21:19:08+00:00,949505702,949289103,0,45.37.64.88,Fractional-reserve banking,/* Criticisms on the basis of instability */
2009-12-02T10:56:42+00:00,329224217,326471570,0,198.96.136.1,Fractional-reserve banking,/* Criticism */
2009-06-05T12:30:48+00:00,294564915,292515334,0,89.35.149.242,Fractional-reserve banking,/* Example of a bank balance sheet and financial ratios */  (formatting)
2007-09-23T02:22:42+00:00,159720811,159720046,0,71.99.52.80,Fractional-reserve banking,
2016-09-22T17:56:36+00:00,740694667,740511566,0,Sparkie82,Fractional-reserve banking,"/* top */ this reference is to all of the monetary base, not just the reserves"
2009-01-30T03:13:38+00:00,267331799,267299078,0,66.191.19.217,Fractional-reserve banking,/* See also */
2017-03-01T20:27:53+00:00,768102008,768101979,0,Excirial,Fractional-reserve banking,Reverted edits by [[Special:Contributions/Beatbox99|Beatbox99]] ([[User talk:Beatbox99|talk]]): Editing tests ([[WP:HG|HG]]) (3.1.22)
2009-06-30T18:25:40+00:00,299550784,299047890,0,135.12.16.7,Fractional-reserve banking,/* Benefits of fractional reserve banking */
2012-08-03T09:03:59+00:00,505550575,505550497,0,180.178.160.140,Fractional-reserve banking,/* History */
2005-12-27T08:41:36+00:00,32858198,32317407,0,Grick,Fractional-reserve banking,merged 2 SEE ALSO sections
2010-03-31T18:26:52+00:00,353195697,352904626,0,CvyvvZkmSUDowVf,Fractional-reserve banking,add wikilink
2014-04-24T14:42:56+00:00,605612526,605585011,0,92.56.105.219,Fractional-reserve banking,Full-reserve banking
2019-04-12T23:50:05+00:00,892217883,874307634,0,80.229.9.32,Fractional-reserve banking,/* External links */
2006-05-11T18:10:45+00:00,52696610,52467776,0,Paul Nollen,Fractional-reserve banking,/* External links */
2006-05-02T21:23:00+00:00,51261102,51259889,0,Alast0r,Fractional-reserve banking,
2006-12-16T19:41:40+00:00,94748258,93466524,0,Dgw,Fractional-reserve banking,/* History */ fix contradiction template
2007-02-23T21:09:48+00:00,110419898,109448060,0,Vincent the Vain,Fractional-reserve banking,"The Money Masters is the only listed example of numerous available documentaries, text books, television show, papers, and articles published on the subject yearly.  It does not merit special mention."
2017-05-23T14:35:38+00:00,781837877,781837842,0,129.19.1.106,Fractional-reserve banking,
2009-01-25T06:47:26+00:00,266267784,266267771,0,SoxBot III,Fractional-reserve banking,Reverting possible test edit(s) by [[Special:Contributions/97.84.13.66|97.84.13.66]] to older version. [[User:X!/False Positive?|Was this a mistake?]] (BOT EDIT)
2009-11-09T00:59:24+00:00,324751230,324734892,0,203.168.215.89,Fractional-reserve banking,wording according to citation
2007-01-28T00:42:59+00:00,103723760,103723097,0,Thijs!bot,Fractional-reserve banking,robot  Adding: [[sv:Fractional-reserve banking]]
2009-10-30T01:01:48+00:00,322840481,322792961,0,Funandtrvl,Fractional-reserve banking,Removed category [[:Category:Finance|Finance]] (using [[WP:HOTCAT|HotCat]])
2005-10-07T05:09:26+00:00,24950938,22947441,0,TitaniumDreads,Fractional-reserve banking,wikify capital ratio
2005-12-22T03:09:38+00:00,32317407,32317266,0,24.55.206.28,Fractional-reserve banking,/* Fractional-Reserve Banking and Central Banking */
2021-01-24T22:01:07+00:00,1002531183,1002101559,0,2600:6C46:4A00:308E:9C64:CF:4BB0:7430,Fractional-reserve banking,Spelling.
2013-06-13T22:47:38+00:00,559791281,559447331,0,JBel,Fractional-reserve banking,"/* Example of deposit multiplication */ Hopefully, the table is now clearer"
2012-10-27T22:12:22+00:00,520174388,520107272,0,222.154.131.120,Fractional-reserve banking,/* Economic function */ remove repeated word
2009-01-04T05:30:18+00:00,261836493,261836211,0,128.107.248.220,Fractional-reserve banking,/* How it works */
2014-02-27T14:00:33+00:00,597371692,597371630,0,68.35.24.222,Fractional-reserve banking,/* External links */
2010-07-17T11:02:24+00:00,373958400,373355993,0,78.105.121.155,Fractional-reserve banking,"Correct grammar, sentences don't start with ""Because"""
2020-11-13T18:22:35+00:00,988523987,988523902,0,Capital W,Fractional-reserve banking,/* Counterpoints to Criticism */
2010-05-31T22:59:11+00:00,365313712,364647013,0,62.98.85.144,Fractional-reserve banking,"added ""usury"" to the ""see also"", for loans produce interests"
2006-07-27T21:24:10+00:00,66234427,65864182,0,200.58.161.147,Fractional-reserve banking,Digital gold currency is not theory
2021-12-14T22:49:16+00:00,1060341280,1057542707,0,Maxeto0910,Fractional-reserve banking,Added short description.
2006-07-31T11:54:52+00:00,66841343,66234427,0,Theblackbay,Fractional-reserve banking,
2013-04-30T22:19:29+00:00,552953913,552952714,0,DouglasCalvert,Fractional-reserve banking,Reverted [[WP:AGF|good faith]] edits by [[Special:Contributions/64.35.208.9|64.35.208.9]] ([[User talk:64.35.208.9|talk]]): Poor grammar. ([[WP:TW|TW]])
2007-02-04T05:42:16+00:00,105511078,105511017,0,DVD R W,Fractional-reserve banking,Reverted edits by [[Special:Contributions/148.85.227.21|148.85.227.21]] ([[User talk:148.85.227.21|talk]]) to last version by 132.246.2.25
2014-12-18T05:27:23+00:00,638603114,638603097,0,KingQueenPrince,Fractional-reserve banking,Reverted edits by [[Special:Contribs/KingQueenPrince|KingQueenPrince]] ([[User talk:KingQueenPrince|talk]]) to last version by 108.31.8.197
2006-03-23T19:14:34+00:00,45142902,45139701,0,81.242.143.173,Fractional-reserve banking,/* Criticisms */
2013-01-17T04:12:31+00:00,533477284,533065023,0,69.249.31.9,Fractional-reserve banking,
2008-09-16T22:16:48+00:00,238899375,238899185,0,142.176.227.46,Fractional-reserve banking,
2005-11-23T21:38:13+00:00,29086096,28449854,0,86.133.248.37,Fractional-reserve banking,/* Fractional-Reserve Banking and Central Banking */
2020-07-04T01:01:33+00:00,965888745,964222306,0,TKRobertson,Fractional-reserve banking,"Added a description and reference to the study ""Can banks individually create money out of nothing? — The theories and the empirical evidence"" to the discussion about commercial bank money"
2008-09-25T09:55:34+00:00,240863928,240639163,0,208.127.201.85,Fractional-reserve banking,
2016-12-28T22:53:17+00:00,757122729,757080683,0,Surfseason,Fractional-reserve banking,Added the fractional-lending aspect to Fractional-reserve banking.
2008-06-14T21:49:32+00:00,219364564,215684889,0,Larklight,Fractional-reserve banking,/* Business cycle */ edit
2009-03-19T18:35:40+00:00,278376092,278375479,0,Massysett,Fractional-reserve banking,revert my last edit; maybe I'm wrong!
2009-01-06T23:11:12+00:00,262406260,262225654,0,91.77.122.27,Fractional-reserve banking,
2011-07-24T21:14:45+00:00,441237451,441237269,0,32.176.235.58,Fractional-reserve banking,/* Money creation */
2008-05-14T09:07:07+00:00,212312045,211798480,0,79.199.45.1,Fractional-reserve banking,/* Purpose and function */
2008-11-21T22:45:56+00:00,253282751,253275761,0,81.15.57.130,Fractional-reserve banking,[[WP:UNDO|Undid]] revision 253275761 by [[Special:Contributions/206.174.203.54|206.174.203.54]] ([[User talk:206.174.203.54|talk]])
2006-02-15T20:54:35+00:00,39780510,39738797,0,86.133.223.154,Fractional-reserve banking,/* Government regulation */
2016-11-17T23:23:50+00:00,750124376,750076862,0,Richi,Fractional-reserve banking,Reverted 1 edit by [[Special:Contributions/Volunteer Marek|Volunteer Marek]] ([[User talk:Volunteer Marek|talk]]) to last revision by Reissgo. ([[WP:TW|TW]])
2010-02-08T12:24:13+00:00,342686623,342682010,0,Tim1357,Fractional-reserve banking,[[Help:Reverting|Reverted]] edits by [[Special:Contributions/86.42.250.206|86.42.250.206]] ([[User talk:86.42.250.206|talk]]) to last version by Gaytan
2007-09-19T17:31:59+00:00,158988189,158978031,0,IanOfNorwich,Fractional-reserve banking,minor remove vandalism
2006-04-08T21:23:29+00:00,47603687,47428465,0,86.137.94.72,Fractional-reserve banking,/* See also */
2012-06-13T22:53:12+00:00,497466180,497464399,0,92.27.204.221,Fractional-reserve banking,/* A Quick Example */
2009-02-23T18:19:10+00:00,272766540,272765584,0,63.214.184.6,Fractional-reserve banking,/* Criticism */
2011-08-23T06:36:09+00:00,446276962,445635270,0,66.75.255.73,Fractional-reserve banking,/* How it works */ Fixed punctuation.
2018-11-21T12:04:20+00:00,869950644,868266211,0,37.152.44.130,Free trade,/* Politics */
2016-04-29T05:34:09+00:00,717694522,715367152,0,Whizz40,Free trade,/* Early era */ cite
2016-12-31T06:16:53+00:00,757535886,756658600,0,Adityaindumdum,Free trade,/* Early era */
2013-04-23T05:32:48+00:00,551749817,550757977,0,Polmandc,Free trade,Cleaned up using [[WP:AutoEd|AutoEd]]
2020-01-04T13:04:52+00:00,934047367,930271243,0,MohsenAlyafei,Freetown International Airport,Corrected Elevation
2018-06-26T00:59:52+00:00,847530277,846087455,0,Pufferfyshe,Freetown International Airport,L6 now operate NKC-DKR-CKY-FNA vv.
2018-11-12T00:02:30+00:00,868403497,868403342,0,85.244.67.35,Freetown International Airport,/* Airlines and destinations */
2014-10-12T07:06:21+00:00,629272534,629144301,0,108.180.172.81,Freetown International Airport,"Deleted ""official site"" link for Lungi International Airport - linked to a domain squatter site. (domain parking site)"
2013-12-10T23:12:56+00:00,585507151,580182756,0,68.119.73.36,Freetown International Airport,
2022-06-13T20:17:56+00:00,1092977826,1081575537,0,Ira Leviton,Freetown International Airport,Fixed a reference.  Please see [[Category:CS1 maint: numeric names: authors list]].
2021-11-21T00:52:37+00:00,1056306629,1056306505,0,99.225.125.72,Freetown International Airport,/* Airlines and destinations */
2018-06-16T06:33:41+00:00,846087455,832521401,0,Reyps,Freetown International Airport,/* Airlines and destinations */
2007-06-22T11:54:16+00:00,139878761,139493822,0,Hasam,Friedrich Hayek,/* See also */
2009-04-12T17:30:57+00:00,283393155,283389358,0,Gareth Jones,Friedrich Hayek,removing space before reference
2018-09-15T18:12:17+00:00,859697150,859693905,0,Tpbradbury,Free trade,Filled in 1 bare reference(s) with [[:en:WP:REFILL|reFill]] ()
2009-06-13T09:13:37+00:00,296137463,296025149,0,Lucyin,Friedrich Hayek,Walloon link
2013-09-05T14:21:46+00:00,571648505,571318775,0,Mdd,Friedrich Hayek,+ Link(s)
2018-07-29T17:48:13+00:00,852537983,852499147,0,Jkomlos,Friedrich Hayek,/* Bibliography */
2007-02-26T16:20:04+00:00,111095746,110297750,0,Sjeng,Friedrich Hayek,/* Selected bibliography */
2006-04-25T12:01:29+00:00,50073237,49946368,0,Simon123,Full-reserve banking,
2017-09-19T19:23:05+00:00,801452314,801445562,0,Montgolfière,Full-reserve banking,Capitalization: 'Financial times' -> 'Financial Times'
2018-04-20T14:44:55+00:00,837391108,836276345,0,Eassin,Full-reserve banking,/* Views */  added subheadings
2010-11-25T23:15:43+00:00,398876124,396837297,0,H3llBot,Full-reserve banking,BOT: [[User:H3llBot/U2A|Moved archive url to archive fields]]
2019-03-24T00:03:53+00:00,889174123,865830657,0,Cleopatran Apocalypse,Full-reserve banking,"/* In favor */ The volume is referenced already, no need to mention it."
2005-07-04T17:10:23+00:00,18137815,17983148,0,StarTrekkie,Full-reserve banking,
2010-03-06T03:44:51+00:00,348036638,347012363,0,99.142.1.101,Full-reserve banking,/* Digital gold or silver */ deleted entire non-notable section which appears to be fraudvertising. If you wish to restore it - pls read it and understand what is being promoted via recognition
2008-10-20T20:56:39+00:00,246578029,246577653,0,Blanchardb,Full-reserve banking,Reverted edits by [[Special:Contributions/79.74.208.140|79.74.208.140]] to last version by Dpwkbw ([[WP:HG|HG]])
2013-01-02T12:43:11+00:00,530910390,528632278,0,Shomroni,Full-reserve banking,/* The case for full reserve */
2012-08-16T04:51:24+00:00,507638945,507469937,0,75.36.161.202,Full-reserve banking,/* Digital gold or silver */
2016-12-21T16:06:46+00:00,756031045,755248484,0,205.118.122.125,Full-reserve banking,/* Views */ added sentence on Jesús Huerta de Soto's book
2015-05-26T15:12:12+00:00,664129400,662118350,0,2601:7:5584:C600:747B:7C7E:63B2:92D6,Full-reserve banking,Adding Jesus Huerta de Soto as an advocate of FRB
2011-04-29T06:25:51+00:00,426515839,426192316,0,EGreg,Full-reserve banking,Improved statement accuracy
2008-12-04T04:30:58+00:00,255782970,253534954,0,173.33.43.77,Full-reserve banking,/* The case for full-reserve banking */
2008-12-23T14:35:19+00:00,259723493,257844720,0,Misterx2000,Full-reserve banking,/* Islamic banking */
2010-06-11T04:49:36+00:00,367361473,367361364,0,Dogface,Full-reserve banking,"/* Reserve ratio */  The opposite of 100% is 0%, not a fraction of 100%."
2008-08-14T20:46:01+00:00,231972255,227232142,0,Mr. Milan Mitka~enwiki,Full-reserve banking,/* See also */
2008-05-30T16:08:13+00:00,215990305,215960372,0,Dpbsmith,Full-reserve banking,Reverted edits by [[Special:Contributions/213.229.171.25|213.229.171.25]] ([[User talk:213.229.171.25|talk]]) to last version by Gregalton
2015-07-26T23:46:44+00:00,673224461,672936480,0,75.108.216.49,Full-reserve banking,Copy editing
2012-12-03T23:05:29+00:00,526247419,526247223,0,Funandtrvl,Full-reserve banking,removed [[Category:Money]]; added [[Category:Monetary policy]] using [[WP:HC|HotCat]]
2014-12-04T17:19:27+00:00,636631013,630680715,0,Chris dcosta,Full-reserve banking,Included reference bitcoin as a full reserve system.
2009-03-25T12:46:55+00:00,279571643,279571399,0,GoldManTookFtKnox,Full-reserve banking,/* Current Examples */
2007-10-25T20:38:56+00:00,167061349,165301871,0,Nil Einne,Full-reserve banking,"/* Digital gold */ Given the lack of regulation etc, according [[digital gold currency]] no one really knows if these banks are really doing what they're saying"
2009-06-26T06:05:06+00:00,298698688,294224634,0,70.116.83.12,Full-reserve banking,
2008-10-18T17:42:07+00:00,246132417,245678703,0,118.103.239.13,Full-reserve banking,/* External links */
2011-12-01T03:33:35+00:00,463428159,460762877,0,HerculeBot,Full-reserve banking,r2.7.1) (Robot: Adding [[fr:100 % monnaie]]
2020-08-19T03:10:21+00:00,973766279,973378413,0,2603:9008:1905:2B00:5897:9006:6E5D:6321,Full-reserve banking,/* Balance sheet fundamentals */
2009-12-19T01:19:19+00:00,332591189,330899101,0,24.166.74.152,Full-reserve banking,/* Digital gold */
2020-12-11T15:50:11+00:00,993620110,993052524,0,82.58.162.35,Full-reserve banking,
2012-02-24T01:25:55+00:00,478528889,477330391,0,Cybercobra,Full-reserve banking,/* Debate over full-reserve banking */
2009-10-29T20:21:29+00:00,322793045,322791809,0,Johnleemk,Full-reserve banking,/* Criticism */ fmt
2014-10-22T18:00:53+00:00,630680715,629926359,0,92.56.105.219,Full-reserve banking,
2007-10-18T00:12:18+00:00,165301871,164038647,0,76.247.105.20,Full-reserve banking,"There is no evidence of any dispute. Please speak up on the Talk: page befoe re-adding the NPOV tag - that is what it's for, and that is what it instructs."
2009-05-26T06:36:02+00:00,292384021,290308398,0,Smileyborg,Full-reserve banking,/* Criticism */
2008-09-30T07:53:09+00:00,241962994,241925499,0,58.108.198.16,Full-reserve banking,/* Criticism of full-reserve banking advocates */
2007-09-29T20:53:51+00:00,161183810,159895723,0,71.245.230.54,Full-reserve banking,The section I deleted does not explain itself. Banks could still offer savings and checking accounts for free simply to expand their overall money supply for future loans.
2011-11-15T11:33:26+00:00,460762877,457287889,0,122.162.39.217,Full-reserve banking,cat
2007-12-23T08:49:11+00:00,179754631,179163864,0,125.238.28.90,Full-reserve banking,/* Islamic banking */
2018-09-16T12:01:53+00:00,859809346,859788789,0,GhostOrchid35,Full-reserve banking,fixed missing pipe
2017-01-18T17:11:21+00:00,760710997,758515584,0,An Errant Knight,Gateway,Corrected link
2007-09-24T16:48:38+00:00,160049430,159998161,0,Sengkang,Gateway,Reverted 1 edit by [[Special:Contributions/212.71.33.95|212.71.33.95]] identified as [[WP:VAND|vandalism]] to last revision by [[User:41.240.248.249|41.240.248.249]]. using [[WP:TW|TW]]
2006-04-14T16:37:35+00:00,48436730,46109991,0,Sengkang,Gateway,/* Places */
2006-06-18T02:43:57+00:00,59211082,55370324,0,RG2,Gateway,clean up  using [[Wikipedia:AutoWikiBrowser|AWB]]
2008-02-07T12:00:14+00:00,189714203,189710821,0,Spencer,Gateway,Reverted edits by [[Special:Contributions/195.195.222.98|195.195.222.98]] ([[User talk:195.195.222.98|talk]]) to last version by Colonies Chris
2011-01-04T12:38:09+00:00,405875715,403904264,0,119.160.151.83,Gateway,/* Companies */
2015-06-04T22:46:07+00:00,665535592,649848074,0,Cartakes,Gateway,/* Other uses */
2021-06-05T07:02:56+00:00,1026960178,1026959647,0,Uranium Site,GetUp!,Reverted 1 edit by [[Special:Contributions/49.180.12.177|49.180.12.177]] ([[User talk:49.180.12.177|talk]])
2022-09-12T00:05:42+00:00,1109807511,1108576975,0,Naraht,GetUp!,cleanup and begin deleting motto/organization_motto/pledge parameters no longer used by infobox organization
2012-04-25T22:48:50+00:00,489229342,485552539,0,Jack Greenmaven,GetUp!,/* Structure */ add link
2009-01-27T02:39:29+00:00,266670006,259827522,0,Tabletop,GetUp!,Spell Decemeber => December
2015-10-14T09:47:54+00:00,685682022,685681991,0,Lor,GetUp!,Reverted edits by [[Special:Contributions/1.129.96.112|1.129.96.112]] ([[User talk:1.129.96.112|talk]]): [[WP:PERSONAL|Personal attack]] or [[WP:CIVIL|uncivil behavior]] toward another user ([[WP:HG|HG]]) (3.1.18)
2008-08-29T15:38:26+00:00,235005269,234999654,0,Whoareus,GetUp!,"A question that no-one seems to be asking. A subject that GetUp make no refernce to on its web site. The words ""private"" & ""privacy"" do not appear at GetUp!'s web site and its annual report!"
2013-01-13T18:24:09+00:00,532894688,529595426,0,Jarble,GetUp!,wikifying
2016-11-21T06:02:06+00:00,750678540,747750329,0,B20097,GetUp!,/*Campaigns*/  banning donations from overseas
2006-06-20T02:56:29+00:00,59556507,59556253,0,Centrx,Gold standard,"/* Early coinage */ fix link, taken off bad disambiguation page"
2009-01-25T15:20:12+00:00,266324058,265667012,0,Aseca21,Gold standard,Add 1929-1930 gold inflows into US
2008-11-08T23:01:45+00:00,250526759,250526715,0,Eric-Wester,Gold standard,Reverted edits by [[Special:Contributions/72.60.136.32|72.60.136.32]] to last version by NJGW ([[WP:HG|HG]])
2014-01-25T02:43:33+00:00,592268169,591486746,0,Ontarioboy,Gold standard,/* US: Pre-Civil War */ removed quotes from the Bank
2013-02-13T16:58:20+00:00,538069810,537746968,0,Meghaninmotion,Gold standard,/* The gold exchange standard (1870–1914) */ cited book for Philippines currency pegging and added detail of Philippines Coinage Act
2008-04-24T13:34:01+00:00,207852954,207690986,0,75.109.215.112,Gold standard,/* External links */
2019-04-15T17:17:27+00:00,892603430,892586348,0,Rrburke,Gold standard,/* Impact of World War I */added link
2010-01-20T19:20:58+00:00,339006221,338381374,0,67.242.40.210,Gold standard,/* Advocates of a renewed gold standard */
2009-03-03T23:54:41+00:00,274801406,274801202,0,Plazak,Gold standard,/* Disadvantages */ need source
2017-10-09T21:38:30+00:00,804572879,804190207,0,Pmccawley,Gold standard,Adding/improving reference(s)
2008-06-05T10:46:21+00:00,217279736,217224566,0,24.255.60.67,Gold standard,/* Perceived stability offered by gold standard */
2016-05-27T00:42:04+00:00,722271867,722271625,0,RevelationDirect,Golden Gumboot,added [[Category:Rain]] using [[WP:HC|HotCat]]
2009-07-25T14:46:46+00:00,304127458,300357198,0,68.119.215.131,Golden Gumboot,
2018-11-22T10:28:20+00:00,870097774,822402521,0,101.179.165.199,Golden Gumboot,The sentence deleted refers to the flood height of the Tully river not the annual record rainfall that the height of the Gumboot represents.
2011-01-03T00:04:18+00:00,405588053,405587211,0,Rocketrod1960,Golden Gumboot,
2006-07-05T06:09:20+00:00,62140476,62140449,0,Frances76,Golden Gumboot,
2010-04-26T11:51:13+00:00,358389459,358389164,0,Pinethicket,Greater fool theory,Undid revision 358389164 by [[Special:Contributions/189.60.144.246|189.60.144.246]] ([[User talk:189.60.144.246|talk]])Rv--unsourced addition
2010-01-15T02:43:48+00:00,337925934,280995225,0,Eastlaw,Greater fool theory,Removed category [[:Category:Stock market|Stock market]]; Quick-adding category [[:Category:Investment|Investment]] (using [[WP:HOTCAT|HotCat]])
2009-01-26T16:01:57+00:00,266541911,266541895,0,J.delanoy,Greater fool theory,Reverted edits by [[Special:Contributions/96.238.175.9|96.238.175.9]] to last version by Matt Deres ([[WP:HG|HG]])
2007-08-08T18:38:34+00:00,150022584,127770320,0,Pnrj,Greater fool theory,"Added material on non-pure value transactions, with an example from a bartering economy"
2010-08-10T18:13:04+00:00,378217111,377569797,0,74.132.162.18,Greater fool theory,
2022-06-16T02:37:54+00:00,1093353817,1090271705,0,Nardog,Greater fool theory,/* References */ unrelated
2015-03-06T16:31:05+00:00,650163845,650163487,0,Derek R Bullamore,Greater fool theory,Filling in 8 references using [[WP:REFLINKS|Reflinks]]
2012-09-05T05:05:17+00:00,510869015,510868839,0,Jeh,Greater fool theory,rv unfounded speculation by user Ensoarts. The economic term long predates Star Wars
2006-11-28T19:50:21+00:00,90725168,79272925,0,17.202.46.164,Greater fool theory,wikify: Economic bubble
2019-04-10T19:04:39+00:00,891881070,879079041,0,Sirwalterhammington,Greater fool theory,/* See also */
2017-07-24T19:41:40+00:00,792150227,767654954,0,Vpab15,Greater fool theory,/* See also */ Add speculation
2019-10-04T08:51:56+00:00,919541407,918308761,0,Just granpa,Greater fool theory,/* Examples */
2018-03-31T12:48:25+00:00,833422167,833422097,0,JulesH,Greater fool theory,/* See also */
2006-09-05T14:38:27+00:00,73952927,73952350,0,207.46.50.75,Guru Arjan,
2005-10-28T23:05:04+00:00,26747181,17068160,0,86.42.1.222,Greater fool theory,
2008-02-27T05:18:48+00:00,194355012,194090818,0,203.63.140.235,Guru Arjan,
2020-12-20T19:48:07+00:00,995390059,994861587,0,Nanrhe10,Guru Arjan,
2016-10-05T17:15:41+00:00,742764503,742757254,0,Apuldram,Guru Arjan,"Undid edits by [[Special:Contributions/86.169.142.16|86.169.142.16]] ([[User talk:86.169.142.16|talk]]), which broke three links"
2018-08-14T19:35:21+00:00,854930896,854928846,0,Ms Sarah Welch,Guru Arjan,/* Martyrdom */ add a note about Mian Mir's help for NPOV
2019-03-30T00:18:40+00:00,890087957,890078790,0,Garyvines,Gympie Pyramid,added location details and co-ordinates
2011-06-25T08:41:33+00:00,436110598,404424772,0,Orderinchaos 2,Gympie Pyramid,fix Gympie links using [[Project:AWB|AWB]]
2009-07-19T23:48:45+00:00,303036383,285211175,0,Jojalozzo,Gympie Pyramid,moved work of Dr. Brown to lead
2010-08-10T11:55:10+00:00,378165062,378141820,0,Gillyweed,Gympie Pyramid,Reverted to revision 370352434 by [[Special:Contributions/Citation bot 1|Citation bot 1]]; Rv uncited material based on Gilroy's view of the world. ([[WP:TW|TW]])
2017-10-19T14:22:21+00:00,806073223,793864306,0,MrBill3,Gympie Pyramid,clean up using [[Project:AWB|AWB]]
2006-08-23T18:06:42+00:00,71426344,69519015,0,205.118.16.153,Gympie Pyramid,m
2021-03-28T22:14:58+00:00,1014754711,1014754258,0,Nickm57,Gympie Pyramid,/* Claims of stone reuse */ Completed Dec 1938
2017-01-17T18:07:20+00:00,760549429,754593246,0,Glide08,Habib,/* Surname */
2016-12-13T13:50:31+00:00,754593246,754593129,0,62.7.75.175,Habib,
2007-06-14T18:03:15+00:00,138178186,138177920,0,Phoenixrod,Habib,wrong edit summary last time; removing junk edit and space
2017-12-17T21:49:45+00:00,815891417,815891402,0,ShimonChai,Habib,
2019-04-04T13:01:23+00:00,890922031,890672463,0,Editor2020,Habib,Reverted edits by [[Special:Contribs/Badhon Khan x|Badhon Khan x]] ([[User talk:Badhon Khan x|talk]]) to last version by Editor2020
2015-03-25T13:00:28+00:00,653453515,650850915,0,Imfeelyoung,Habib,
2014-01-22T21:18:58+00:00,591928611,587480696,0,Buhadram,Habib,/* Given name */
2005-10-19T05:49:26+00:00,25896702,25896605,0,61.246.215.139,Habib,
2017-04-28T20:10:39+00:00,777712384,773771555,0,212.198.122.22,Habib,
2012-07-04T10:34:10+00:00,500630007,500628455,0,SamuelTheGhost,Habib,Reverted 1 edit by [[Special:Contributions/211.28.44.231|211.28.44.231]] ([[User talk:211.28.44.231|talk]]) identified as [[WP:VAND|vandalism]] to last revision by 69.110.6.77. ([[WP:TW|TW]])
2011-06-25T11:09:58+00:00,436124304,436027180,0,JohnCengiz77,Habib,[[Help:Reverting|Reverted]] edits by [[Special:Contributions/68.76.140.103|68.76.140.103]] ([[User talk:68.76.140.103|talk]]) to last version by SamuelTheGhost
2013-08-08T17:36:44+00:00,567706551,567705057,0,NeilN,Habib,Reverted 1 edit by [[Special:Contributions/86.163.37.154|86.163.37.154]] ([[User talk:86.163.37.154|talk]]): Rv redlink. using [[WP:TWINKLE|TW]]
2006-09-15T00:13:00+00:00,75795326,74952285,0,64.222.148.180,Habib,
2020-12-22T00:46:14+00:00,995618796,988191035,0,Johnny Rose 11,Habib,/* Other spellings */
2013-06-26T16:18:39+00:00,561689679,561689587,0,80.249.216.73,Hard currency,/* History */
2009-03-06T10:18:46+00:00,275366875,274005262,0,S3azab,Habib,added another person with the surname habib
2012-01-19T23:08:27+00:00,472145851,471836784,0,131.243.171.39,Hard currency,/* Paper gold */
2012-11-20T08:15:33+00:00,523986441,523986368,0,94.78.92.14,Hard currency,
2022-03-18T15:06:29+00:00,1077854510,1077853436,0,Richardmalik,Hard currency,Added some links to [[Silver standard]] and [[Gold standard]]
2017-04-13T09:51:58+00:00,775200105,770945561,0,Superegz,Hard currency,/* References */
2015-03-25T18:36:54+00:00,653493386,653315943,0,209.205.38.43,Hard currency,
2020-12-13T07:25:46+00:00,993936405,986111346,0,OlliverWithDoubleL,Hard currency,"added short description, added links relevant to finance"
2007-04-24T20:21:01+00:00,125613153,122234385,0,206.202.64.46,Hard currency,m link pegged -> Fixed_exchange_rate
2015-07-13T22:39:28+00:00,671319630,671319525,0,50.170.245.110,High-fructose corn syrup,/* Production */
2019-11-28T09:18:33+00:00,928324598,926963253,0,Miguel Calvo,High-fructose corn syrup,"Eliminated an erroneous and meaningless statement. Mercury chloride cannot be added to a material intended for food use. It is used only in the investigation of the structure of starch, to prevent its degradation by endogenous enzymes during extraction."
2019-10-23T01:07:14+00:00,922583075,922429986,0,Bluebare,High-fructose corn syrup,"The statement ""there is no evidence that retail HFCS products contain harmful compounds or cause diseases."" is a controversial statement that is still being debated across the scientific community. To say that there is absolutely ""no"" evidence makes it seem as a proven statement when there is no evidence to suggest that. Since this is still be debated, this statement seems it is subjective to ones view."
2009-09-08T18:41:18+00:00,312632883,312626672,0,131.74.252.134,High-fructose corn syrup,/* Cane and beet sugar */
2007-01-31T16:53:16+00:00,104611212,104610877,0,Gaviidae,High-fructose corn syrup,/* In the United States */ style- moved period to before links
2009-03-22T18:27:32+00:00,278982737,278956952,0,Qaz2wsx3edc,High-fructose corn syrup,/* Production */ aspergillus reference
2010-12-15T12:16:16+00:00,402504470,402216091,0,82.180.29.126,High-fructose corn syrup,/* Moves back to sugar */
2008-08-26T02:33:29+00:00,234268419,234267340,0,71.239.102.241,High-fructose corn syrup,removed vandalism in first paragraph
2020-10-31T04:12:09+00:00,986326211,986325795,0,Kjorg23,High-fructose corn syrup,/* History */ Another wrong preposition
2018-10-14T23:50:17+00:00,864079157,863948008,0,Ccrrccrr,High-fructose corn syrup,"Undid revision 863948008 by [[Special:Contributions/Zefr|Zefr]] ([[User talk:Zefr|talk]]) The added ""there"" clarified it even it if wasn't necessary."
2010-09-07T18:05:30+00:00,383491876,383479869,0,Sciencewatcher,High-fructose corn syrup,Undid revision 383479869 by [[Special:Contributions/129.74.117.205|129.74.117.205]] ([[User talk:129.74.117.205|talk]]) already covered in article. also see talk.
2011-06-21T09:46:17+00:00,435431433,435431148,0,69.72.27.125,High-fructose corn syrup,/* Historical */ and again
2013-06-02T17:37:08+00:00,558001543,557388766,0,DemonicPartyHat,High-fructose corn syrup,Minor copyediting.
2011-07-06T01:46:21+00:00,437977235,437957663,0,Sciencewatcher,High-fructose corn syrup,Undid revision 437957663 by [[Special:Contributions/Dr McDonough|Dr McDonough]] ([[User talk:Dr McDonough|talk]]) nothing to do with bees
2007-10-10T07:49:50+00:00,163520951,162547584,0,WriterHound,High-fructose corn syrup,/* Health effects */ Added info
2020-04-30T18:43:29+00:00,954109024,954108962,0,Amkgp,High-fructose corn syrup,Reverted 1 edit by [[Special:Contributions/2A02:587:C20B:A000:C447:F231:EA52:DB1E|2A02:587:C20B:A000:C447:F231:EA52:DB1E]] ([[User talk:2A02:587:C20B:A000:C447:F231:EA52:DB1E|talk]]) to last revision by Userrrr1267! ([[WP:TW|TW]])
2017-06-29T01:13:58+00:00,788022898,788022877,0,SQL,High-fructose corn syrup,Reverted edits by [[Special:Contributions/112.209.181.115|112.209.181.115]] ([[User talk:112.209.181.115|talk]]) ([[WP:HG|HG]]) (3.1.22)
2020-08-28T22:15:01+00:00,975505956,975503651,0,Zefr,High-fructose corn syrup,/* Nutrition */ micronutrients
2011-08-21T14:52:33+00:00,445994476,445993910,0,Kww,History of Bangladesh,{{pp-semi|small=yes}}
2015-02-11T10:24:22+00:00,646629221,646295408,0,Adrian J. Hunter,High-fructose corn syrup,format refs and trim redundancy
2012-04-29T13:41:19+00:00,489782953,489640614,0,Bleaney,History of Bangladesh,/* Surrender and aftermath */ Spacing
2019-03-10T14:18:49+00:00,887085835,886714769,0,Windraneel,History of Bangladesh,
2011-08-02T12:42:07+00:00,442666610,442580522,0,Dmitri Lytov,History of Bangladesh,/* Pre-historic Bengal */
2015-01-22T21:39:49+00:00,643725212,642814944,0,Aragotton,History of Bangladesh,
2022-02-05T19:13:45+00:00,1070112930,1069623740,0,Worldbruce,History of Bangladesh,"/* Etymology of Bengal */ corrected URL and page number, added quote to clarify how little of the paragraph the source supports"
2012-02-15T13:58:16+00:00,477004911,474534348,0,PKT,Hong Kong China Ferry Terminal,Disambiguated: [[Nansha]] → [[Nansha District]]
2015-06-09T02:19:04+00:00,666128289,663202019,0,Zzyzx11,Hong Kong China Ferry Terminal,added [[Category:Ferry terminals in Hong Kong]] using [[WP:HC|HotCat]]
2008-08-11T17:04:30+00:00,231263031,221969752,0,DumZiBoT,Hong Kong China Ferry Terminal,"Bot: Converting bare references, using ref names to avoid duplicates, see [[User:DumZiBoT/refLinks|FAQ]]"
2010-05-05T11:56:19+00:00,360272035,360269582,0,Takamaxa,Hong Kong China Ferry Terminal,/* See also */
2019-06-15T13:31:23+00:00,901957924,899019255,0,Josvebot,Hong Kong China Ferry Terminal,v2.01b - [[WP:WCW]] project (Unicode control characters)
2018-06-25T16:45:05+00:00,847476186,847476151,0,Finnusertop,History of Bangladesh,/* Politics: 1954–1971 */
2020-08-29T15:20:22+00:00,975622325,975621824,0,Mojo Hand,Hot Air,Reverted edits by [[Special:Contributions/2605:6000:B78B:FD00:1B1:1DC3:5E6A:3BEC|2605:6000:B78B:FD00:1B1:1DC3:5E6A:3BEC]] ([[User talk:2605:6000:B78B:FD00:1B1:1DC3:5E6A:3BEC|talk]]) ([[WP:HG|HG]]) (3.4.10)
2009-08-29T09:04:55+00:00,310686935,309686604,0,Scooge,Hot Air,trying to fix links
2019-07-06T04:13:41+00:00,905005388,902421541,0,BlueShirtz,Hot Air,added the conservatism in the united states template
2016-05-12T04:30:37+00:00,719848406,719848209,0,Marquis de Faux,Hot Air,added logo
2013-07-08T23:51:23+00:00,563447865,554673672,0,Fubaz,Hot Air,
2010-06-14T17:38:35+00:00,368007325,368006923,0,Shortride,Hot Air,/* External links */ {{Salem Communications}}
2020-01-04T23:00:29+00:00,934132777,933975256,0,Bri,Hot Air,removed [[Category:Conservatism in the United States]]; added [[Category:American conservative websites]] using [[WP:HC|HotCat]]
2008-07-20T09:25:27+00:00,226779041,226749596,0,Nigel Ish,Hughes H-4 Hercules,/* Specifications (H-4) */ attempt to fix propellor mess in template
2014-02-12T20:34:23+00:00,595192802,591805996,0,Marigold100,Hughes H-4 Hercules,"Infobox, ""One"" Design para 3, deleted comma, para 5, ""present-day"" Operational para 1, ""copilot"" usual, para 2, ""at a"" General characteristics, ""three"", ""one"""
2009-09-30T11:56:15+00:00,317073169,317061232,0,Bzuk,Hughes H-4 Hercules,"last submission comes off as a ""fanboy"" entry, and the mere menton of the Spruce Goose is not enough for it to be considered notable"
2017-05-12T14:24:48+00:00,780030153,780029522,0,Molly-in-md,Hughes H-4 Hercules,"/* Design and development */ In cost paragraph, fixed duplicate URL, punctuation, and wording."
2017-07-16T18:54:49+00:00,790881399,790182469,0,2605:6000:EC16:C000:8135:1DB1:D874:A9A0,Hughes H-4 Hercules,"/* Design and development */ Bad use of bold, per MOS"
2017-04-08T16:20:35+00:00,774459282,773930178,0,AussieLegend,Hughes H-4 Hercules,/* Display */ link fix
2009-04-13T23:26:13+00:00,283672212,283648991,0,Bzuk,Hughes H-4 Hercules,
2018-06-10T11:48:58+00:00,845236830,831309473,0,209.6.209.51,Hyman Minsky,WP:CLAIM & rm inappropriate link
2019-01-24T23:36:22+00:00,880042609,880042355,0,2600:1702:24F0:28D0:6C13:755B:E56F:DB65,Hughes H-4 Hercules,"Put it back to 2,500,00. The show I was watching said $25,000,000 but they were wrong"
2006-05-19T00:59:13+00:00,53955812,0,0,Cryout,Hyman Minsky,
2014-12-08T00:09:27+00:00,637092626,637005644,0,GoingBatty,Hyman Minsky,[[:en:WP:CLEANER|WPCleaner]] v1.34 - Repaired 1 link to disambiguation page - [[WP:DPL|(You can help)]] - [[New Yorker]] / Fixed using [[WP:WCW]] (External link with a line break)
2009-02-19T03:01:51+00:00,271732793,271732633,0,146.171.254.65,Hyman Minsky,/* Minsky's theories and the subprime mortgage crisis */
2012-11-21T03:55:23+00:00,524134150,522918892,0,J. Milch,Hyman Minsky,
2009-02-23T19:33:46+00:00,272782505,272782375,0,198.45.19.50,Hyman Minsky,/* Hyman Minsky */
2011-11-02T01:57:55+00:00,458568389,457070480,0,187.42.90.139,Hyman Minsky,/* Views on John Maynard Keynes */  chance keynesian uncertainty to Knightian uncertainty.
2019-02-17T09:13:30+00:00,883740713,878859429,0,2600:1702:2D0:7C00:146B:2C1F:CE58:CE3B,Hyman Minsky,/* See also */
2008-03-09T17:24:56+00:00,197033227,192183788,0,Kyle the bot,Hyman Minsky,robot  Adding: [[fr:Hyman Minsky]]
2016-08-29T22:43:15+00:00,736800675,732570827,0,McElderry,Hyman Minsky,
2008-02-18T00:37:50+00:00,192183788,192183653,0,68.174.139.58,Hyman Minsky,/* External links */
2018-09-05T14:42:26+00:00,858167595,858166389,0,Rowan Forest,ISRO,"/* Reusable Launch Vehicle-Technology Demonstrator (RLV-TD) */  ""Almost ready"" since 2015.  General edit."
2013-03-07T06:28:56+00:00,542528488,542526323,0,Andrewman327,ISRO,Reverted edit(s) by [[Special:Contributions/117.202.85.41|117.202.85.41]] identified as test/vandalism using [[WP:STiki|STiki]]
2022-01-12T15:50:05+00:00,1065250253,1065248475,0,S882iiqu2ey6,ISRO,
2011-03-27T11:40:21+00:00,420964326,420885713,0,Martarius,ISRO,/* Planetary exploration */ ref
2015-11-29T12:21:39+00:00,692948946,692944799,0,Strike Eagle,ISRO,Reverted [[WP:AGF|good faith]] edits by [[Special:Contributions/14.97.32.103|14.97.32.103]] ([[User talk:14.97.32.103|talk]]): Sourced content. ([[WP:TW|TW]])
2022-09-01T12:35:06+00:00,1107894425,1107769556,0,Ohsin,ISRO,/* Human resource development */  Redundant
2020-06-07T08:00:08+00:00,961219536,961209822,0,Ohsin,ISRO,Undid revision 961209822 by [[Special:Contributions/Shahvr|Shahvr]] ([[User talk:Shahvr|talk]]) [[WP:OSE]] doesn't apply as [[WP:MOSIS]] is specific to Indian articles.
2013-08-03T15:00:45+00:00,566994099,566237974,0,Hendrick 99,ISRO,"Using same naming format as on [[Indian navy]], [[Indian Air force]], etc."
2011-02-10T08:02:10+00:00,413071205,412673982,0,194.54.208.211,ISRO,/* Test facilities */
2011-03-14T19:02:34+00:00,418822813,418821468,0,Lopifalko,Icebreaker (non-fiction book),Needs more references
2015-08-31T19:24:38+00:00,678809631,678492294,0,66.36.135.81,Icebreaker (non-fiction book),
2010-09-03T09:11:45+00:00,382638533,382605822,0,Lothar von Richthofen,Icebreaker (non-fiction book),I think it is generally accepted that rezun was in military intelligence before he defected... but removed potentially controversial superlative...
2007-08-21T02:02:17+00:00,152606188,138772947,0,Colchicum,Icebreaker (non-fiction book),/* External links */
2020-09-14T04:43:57+00:00,978314903,970046525,0,F.Blaubiget,Icebreaker (non-fiction book),introduction more precise (I think it´s important that he lived in UK already) ; typo
2008-07-17T15:32:32+00:00,226257655,224007358,0,Antodav2007,If,
2018-08-07T14:19:31+00:00,853874744,853288061,0,Michael Bednarek,If,+[[If Magazine]].
2013-04-17T02:45:57+00:00,550744807,550741253,0,Vanished user kweiru239aqwijur3,If,"/* Music */  . .[[Joni Mitchell]]'s ''If'', 2007, is added ... http://www.oneyearofwritingandhealing.com/a_healing_library/2008/11/if-by-joni-mitchell-and-rudyard-kipling.html"
2007-06-07T21:49:51+00:00,136696245,132366311,0,89.6.69.126,If,/* In music */ modified reference to If (band)
2010-01-01T03:51:12+00:00,335231504,335231459,0,Shirik,If,Reverted edits by [[Special:Contributions/67.174.61.2|67.174.61.2]] to last revision by 91.78.98.56 ([[WP:HG|HG]])
2008-07-06T22:30:33+00:00,224007358,222962635,0,Postrach,If,repair iw cs
2007-02-04T13:36:25+00:00,105565440,103238172,0,Jatkins,If,
2009-08-23T13:17:31+00:00,309596200,305496198,0,RibotBOT,If,robot Adding: [[da:IF]]
2014-05-24T05:37:46+00:00,609905081,609904884,0,Epeefleche,Imaad Wasif,Added {{[[Template:notability|notability]]}} tag to article ([[WP:TW|TW]])
2007-05-08T13:09:50+00:00,129226970,129210822,0,Weregerbil,Imaad Wasif,Revert to revision 105368304 dated 2007-02-03 17:45:46 by Arleach using [[:en:Wikipedia:Tools/Navigation_popups|popups]]
2007-02-03T17:45:46+00:00,105368304,98965091,0,Arleach,Imaad Wasif,was in Lowercase; didn't found FI; wasn't in DFI.
2013-12-28T06:12:05+00:00,588032887,583423428,0,The Rolling Stoner,Imaad Wasif,album updates
2016-11-29T05:35:27+00:00,752045983,740392180,0,2602:306:B8D7:3050:4C35:4D2:963E:BC91,Imaad Wasif,updated bio
2018-01-16T19:14:04+00:00,820811310,820811257,0,2600:1700:C850:4380:ACCE:28E9:7267:4104,Imaad Wasif,removed spacing
2022-08-11T21:22:26+00:00,1103972278,1090557472,0,Xaeman,Imaad Wasif,/* Discography */ linked lowercase's article and the article for the going away present
2021-07-16T16:46:35+00:00,1033916294,1024989080,0,2600:1700:4819:B000:45E2:CAA3:4018:B45A,Imaad Wasif,/* Discography */ Updated
2021-04-06T12:22:05+00:00,1016296913,1014817001,0,106.204.163.247,Inderjit Singh Bindra Stadium,
2013-09-28T16:46:54+00:00,574890346,573185432,0,Dale Arnett,Inderjit Singh Bindra Stadium,The city of Mohali changed its name to Ajitgarh.
2016-12-30T06:18:44+00:00,757360668,751516099,0,Nitin.kunjir,Inderjit Singh Bindra Stadium,
2022-03-05T07:28:36+00:00,1075348195,1075348045,0,103.109.178.90,Inderjit Singh Bindra Stadium,/* Notable events */
2019-06-17T23:23:40+00:00,902309379,902201748,0,Susmuffin,Inderjit Singh Bindra Stadium,Reverted 1 [[WP:AGF|good faith]] edit by [[Special:Contributions/2409:4055:500:BCF1:ADFD:DC28:267E:92F2|2409:4055:500:BCF1:ADFD:DC28:267E:92F2]] using [[WP:STiki|STiki]]
2005-10-05T07:38:12+00:00,24794576,24631989,0,Whobot,Inderjit Singh Bindra Stadium,Recat per [[WP:CFD]] Category:Indian_cricket_grounds to Category:Cricket_grounds_in_India
2008-03-12T05:33:37+00:00,197656795,197656734,0,195.39.177.68,Inderjit Singh Bindra Stadium,
2011-02-02T18:36:49+00:00,411622986,411621682,0,SpacemanSpiff,Inderjit Singh Bindra Stadium,[[Help:Reverting|Reverted]] edits by [[Special:Contributions/109.175.220.228|109.175.220.228]] ([[User talk:109.175.220.228|talk]]) to last version by AroundTheGlobe
2022-05-14T20:21:14+00:00,1087837132,1087836994,0,Eric1998,Inderjit Singh Bindra Stadium,
2015-09-23T15:26:37+00:00,682412386,681308572,0,Oganesson007,Inflation,The map is already available
2013-03-05T05:55:24+00:00,542162761,542151981,0,165.123.221.65,Inflation,
2007-11-03T15:09:29+00:00,168952182,168581941,0,61.6.234.212,Inflation,/* Problems */
2005-10-11T14:35:53+00:00,25279195,25226790,0,192.250.34.161,Inflation,/* The role of inflation in the economy */
2021-10-29T08:32:01+00:00,1052463001,1052462477,0,Colin.champion,Inflation,Modify the lead section to make it explicit that wages are included amongst prices. Some consequential changes.
2012-03-07T19:29:51+00:00,480713115,480084644,0,72.252.152.163,Inflation,/* History */
2015-06-10T14:06:36+00:00,666339996,666339244,0,Widr,Inflation,Reverted 1 edit by [[Special:Contributions/109.236.47.112|109.236.47.112]] using [[WP:STiki|STiki]]
2021-03-20T07:35:03+00:00,1013142220,1012939745,0,Hitchmix18,Inflation,
2008-08-05T14:57:21+00:00,229994996,229948994,0,ChemGardener,Inflation,remove spam link
2010-08-15T23:21:40+00:00,379124684,379104581,0,Morphh,Inflation,/* Austrian view */ Added other article that covers this topic
2012-11-28T14:06:55+00:00,525336511,525097274,0,Grolltech,Inflation,/* See also */
2015-11-18T06:09:31+00:00,691191441,691118966,0,100.38.32.236,Inflation,
2010-08-10T21:51:12+00:00,378253126,373504177,0,Airplaneman,Inflation,/* Monetary policy */ I'm pretty sure this is a summary of [[Monetary policy]] that is meant to be relatively short
2005-09-09T15:14:50+00:00,22913027,22710871,0,210.241.238.189,Inflation,id:
2016-02-10T13:09:02+00:00,704246103,704245230,0,Dcirovic,Inflation,Reverted 1 edit by [[Special:Contributions/Timlennert|Timlennert]] identified as test/vandalism using [[WP:STiki|STiki]]
2007-01-27T00:21:49+00:00,103501385,103193614,0,Gokmop,Inflation,/* Commonly used measures of inflation */
2021-06-09T20:53:15+00:00,1027759942,1027523832,0,Keith D,Inflation,Fix PMC warnings
2010-06-10T23:09:33+00:00,367309906,367036126,0,Duoduoduo,Inflation,clarifications on negative effects of inflation
2007-09-14T04:35:33+00:00,157783246,157783204,0,69.140.95.93,Inflation,/* Currency and Banking Schools */
2010-04-22T03:48:10+00:00,357549866,357298327,0,کاشف عقیل,Inflation,Added interwiki for ur
2019-04-20T18:52:15+00:00,893345125,891396585,0,Darthkayak,Inflation,"/* Keynesian view */ made an ""i"" lowercase"
2018-03-10T02:21:22+00:00,829675886,829675674,0,183.178.187.85,Inflation,move to better section
2020-09-17T18:31:56+00:00,978919296,978200007,0,66.91.216.98,Inflation,"Adding the fully specified synonym ""price inflation"" (as opposed to monetary inflation)"
2006-01-29T23:15:56+00:00,37274823,37106448,0,206.206.127.6,Inflation,/* Monetary policy */
2014-07-31T14:27:31+00:00,619293753,619026490,0,Samanta Snowdy,Inflation,/* Related definitions */
2016-08-03T23:57:09+00:00,732897134,732619522,0,2601:541:4305:C70:945B:2B05:399F:A98A,Inflation,fix link
2010-11-04T10:56:45+00:00,394764033,394726450,0,NotAGroup,Inflation,a rise in the general price level in stead of a general rise in the level of prices
2005-11-19T19:08:05+00:00,28768358,28768313,0,Wdyoung,Inflation,"Corrected spelling to ""accommodative"" and ""accommodates"""
2007-07-16T07:41:37+00:00,144955483,144372954,0,202.127.11.118,Inflation,
2006-05-14T13:31:10+00:00,53147037,53137595,0,203.100.30.72,Inflation,/* Measuring inflation */
2022-07-29T01:51:51+00:00,1101048719,1101048684,0,InvadingInvader,Inflation,Reverting edit(s) by [[Special:Contributions/68.198.156.42|68.198.156.42]] ([[User_talk:68.198.156.42|talk]]) to rev. 1101044632 by 2601:601:0:2F20:A481:17B3:73DD:2A09: [[WP:VANDAL|Vandalism]] [[w:en:WP:RW|(RW 16.1)]]
2006-01-23T11:21:55+00:00,36345503,36299927,0,212.181.2.66,Inflation,
2017-11-16T11:41:06+00:00,810620475,810620442,0,Red-eyed demon,Inflation,Reverted edits by [[Special:Contribs/84.9.115.85|84.9.115.85]] ([[User talk:84.9.115.85|talk]]) to last version by InternetArchiveBot
2012-08-02T19:26:45+00:00,505467908,505260749,0,Amelapay,Inflation,/* External links */  added link
2021-03-07T20:45:37+00:00,1010878407,1010639098,0,Gators bayou,Inflation,
2006-04-10T14:16:27+00:00,47802390,47800909,0,Monkeyman,Inflation,/* Measuring inflation */ U.S.
2015-02-15T20:56:57+00:00,647292809,647292761,0,2001:6B0:1:1DF0:F24D:A2FF:FE32:897F,Inflation,Undid revision 647282750 by [[Special:Contributions/209.236.3.76|209.236.3.76]] ([[User talk:209.236.3.76|talk]])
2011-06-06T05:00:57+00:00,432798879,431970080,0,Gedankenhoren,Inflation,"rewording; balancing views of inflation; introduction of concepts used later in article; I would suggest an expansion of the paragraph I just edited, to ramify the article's scope in a way that reflects the academic contention"
2007-09-26T11:09:21+00:00,160445084,160381065,0,66.92.12.3,Inflation,"/* Statistical sources */ removed link to pay fringe site about ""shadow government"""
2008-08-10T11:45:40+00:00,231001674,230996511,0,Van helsing,Inflation,restore some sections
2019-03-30T04:42:43+00:00,890111870,890111852,0,EclipseDude,Inflation,Reverted edits by [[Special:Contribs/Aydenl101|Aydenl101]] ([[User talk:Aydenl101|talk]]) to last version by EclipseDude
2016-05-19T12:51:07+00:00,721041142,719881493,0,108.6.208.32,Inflation,
2009-02-07T20:07:21+00:00,269184014,268917099,0,Vrlak,Inflation,added consumer price index
2012-12-20T10:31:21+00:00,528940671,528940456,0,Rocketrod1960,Inflation,Reverted edit(s) by [[Special:Contributions/212.219.3.8|212.219.3.8]] identified as test/vandalism using [[WP:STiki|STiki]]
2008-06-13T23:35:49+00:00,219184024,219054427,0,76.118.25.240,Inflation,removed non-relevant section
2021-04-09T15:32:33+00:00,1016879957,1016879595,0,Zimmer16,Inflation,Undid revision 1016879595 by [[Special:Contributions/Jacksonstewart05|Jacksonstewart05]] ([[User talk:Jacksonstewart05|talk]])
2019-06-01T05:25:39+00:00,899761952,899761186,0,Meters,Inflation,left over junk from a bit of self-reverted vandalism
2011-04-05T00:18:00+00:00,422416082,422416048,0,Tide rolls,Inflation,Reverted edits by [[Special:Contributions/69.235.4.148|69.235.4.148]] ([[User talk:69.235.4.148|talk]]) to last revision by 128.253.211.77 ([[WP:HG|HG]])
2021-12-03T05:12:20+00:00,1058382646,1058381384,0,Wragge,Inflation,"/* Cost-of-living allowance */ The citation in no way supported the claim in the second paragraph, so moved that citation to a sentence that it does support"
2009-01-07T18:11:59+00:00,262569338,262568942,0,202.89.68.194,Inflation,/* Origins */
2010-03-19T21:41:37+00:00,350864635,350863496,0,Evenios,Inflation,Reverted edits by [[Special:Contributions/195.2.236.12|195.2.236.12]] to last revision by VolkovBot ([[WP:HG|HG]])
2008-05-20T00:27:50+00:00,213595323,213594905,0,71.171.71.171,Inflation,
2006-02-26T14:05:37+00:00,41313872,40724122,0,Denoir,Inflation,Correlation does not equal to cause or consequence
2008-05-18T13:48:27+00:00,213243922,212833893,0,58.108.112.62,Inflation,/* Effects of inflation */
2015-10-26T07:20:24+00:00,687545708,686386492,0,Eadamski,Inflation,/* Positive */
2019-10-23T13:24:40+00:00,922651880,922651823,0,DoebLoggs,Inflation,Reverted 2 edits by [[Special:Contributions/2A02:C7F:DC1F:1100:65AE:822F:C94C:A1A3|2A02:C7F:DC1F:1100:65AE:822F:C94C:A1A3]] ([[User talk:2A02:C7F:DC1F:1100:65AE:822F:C94C:A1A3|talk]]) to last revision by BernardoSulzbach ([[WP:TW|TW]])
2006-04-15T14:07:16+00:00,48567051,48498721,0,85.98.47.36,Inflation,/* Gold */
2015-05-06T01:32:17+00:00,661036083,661034864,0,Drbogdan,Inflation,Reverted 1 edit by [[Special:Contributions/99.107.90.58|99.107.90.58]] ([[User talk:99.107.90.58|talk]]) to last revision by Bobrayner. ([[WP:TW|TW]])
2017-05-25T07:41:37+00:00,782159755,782083350,0,50.39.47.200,Inflation,/* External links */ removed dead/incorrect link
2006-01-08T03:48:02+00:00,34322788,33973297,0,JavOs,Inflation,/* The role of inflation in the economy */  Added link to relative prices
2010-07-04T08:31:54+00:00,371671922,371418769,0,The Nut,Inflation,"Alpha order, external, wikilinks, punctuation"
2005-09-29T03:15:47+00:00,24288999,23950886,0,YurikBot,Inflation,robot  Adding: nn
2005-12-04T08:32:56+00:00,30096366,30096324,0,69.158.129.44,Inflation,update link(s)
2011-11-29T03:08:32+00:00,463018710,463018345,0,Jimjim168,Inflation,/* See also */
2021-06-18T01:38:40+00:00,1029121788,1027759942,0,Ry&Lrs&,Inflation,/* See also */added see also content
2006-07-21T21:20:13+00:00,65101297,65086827,0,Nagle,Inflation,"revert to 01:45, 21 July 2006 JDK77590 - rather blatent POV"
2021-07-26T21:51:55+00:00,1035645538,1035645428,0,BRW,Inflation,/* Positive */ link to Nobel laureate
2007-01-12T21:10:19+00:00,100300044,99943231,0,68.184.218.14,Inflation,/* A problem of Econometrics */
2008-04-13T20:59:09+00:00,205407820,204911900,0,209.6.221.199,Inflation,
2021-07-11T05:01:28+00:00,1033031156,1033030389,0,Meters,Inflation,Undid revision 1033030389 by [[Special:Contributions/2409:4073:4E97:19D7:5D17:79B:7B2D:3F9E|2409:4073:4E97:19D7:5D17:79B:7B2D:3F9E]] ([[User talk:2409:4073:4E97:19D7:5D17:79B:7B2D:3F9E|talk]]) more general than the value of one commodity
2011-08-16T09:59:58+00:00,445128371,444789101,0,163.1.243.72,Inflation,Inserted a missing space character in the first few sentences.
2014-06-19T06:56:10+00:00,613528261,613140964,0,122.176.96.249,Inflation,/* History */
2009-10-30T22:22:22+00:00,323000942,322531117,0,216.251.133.36,Inflation,"Definitley going to need more than one citation to make a claim of ""Economists generally agree"""
2015-04-08T23:21:15+00:00,655601073,655455965,0,Drbogdan,Inflation,Reverted 1 edit by [[Special:Contributions/103.241.244.35|103.241.244.35]] ([[User talk:103.241.244.35|talk]]) to last revision by Amortias. ([[WP:TW|TW]])
2006-12-18T01:44:24+00:00,95001826,95001478,0,SWAdair,Inflation,rv
2006-12-26T22:35:59+00:00,96621542,96250953,0,Guy Harris,Inflation,"Put the ""other uses"" on another line."
2022-01-12T13:44:42+00:00,1065232068,1065064731,0,Impraveenhugar,Inflation,"In this inflation map, pok and azad Kashmir named places are the integrated part of India. But those are not showed in this inflation map. This is a matter of india's sovereignty. That's why please update it."
2008-02-19T23:38:08+00:00,192678144,192524950,0,211.253.219.194,Inflation,/* See also */
2014-09-06T09:50:22+00:00,624397217,624386776,0,BioBrain,Inflation,Undid revision 624386776 by [[Special:Contributions/197.250.128.66|197.250.128.66]] ([[User talk:197.250.128.66|talk]])
2021-03-31T19:10:07+00:00,1015309773,1014491103,0,Kaltenmeyer,Inflation,/* Definition */ edited ref
2011-08-10T08:28:17+00:00,444021467,443943928,0,80.1.221.167,Inflation,
2008-07-30T16:10:26+00:00,228832319,228832160,0,130.246.135.176,Inflation,
2007-09-18T20:03:09+00:00,158796352,158794904,0,85.228.17.244,Inflation,
2008-07-23T10:22:59+00:00,227384970,227368277,0,Edayapattiarun,Inflation,/* Issues in measuring inflation */
2017-04-30T17:30:07+00:00,778015514,778015395,0,182.19.64.93,Inflation,/* Measures */
2012-12-29T17:30:57+00:00,530322212,530300406,0,Professor marginalia,Inflation,rvv
2015-04-08T04:50:01+00:00,655455965,655160318,0,103.241.244.35,Inflation,/* Positive */
2007-08-16T13:53:32+00:00,151603546,151587726,0,213.170.45.3,Inflation,Removing vandalism
2011-05-18T19:17:31+00:00,429766227,429766135,0,122.163.49.183,Inflation,/* Keynesian view */
2011-03-07T15:19:25+00:00,417611581,417448077,0,Gut Monk,Inflation,Added chart to contrast difference seen in M2 and CPI inflation.
2021-10-17T19:14:21+00:00,1050426851,1049979687,0,2001:4645:EAEF:0:E59B:2A35:7C62:F92E,Inflation,/* Fixed exchange rates */ Pakistan still has fixed currency regime
2009-05-05T19:21:43+00:00,288110879,288110451,0,Kmeisterling,Inflation,/* See also */
2012-04-08T12:32:40+00:00,486247750,486247537,0,VQuick,Inflation,Cleanup from previous edit
2012-07-01T13:01:36+00:00,500176712,500176628,0,Renamed user U1krw4txwPvuEp3lqV382vOcqa7,Inflation,Reverted edits by [[Special:Contributions/182.177.214.205|182.177.214.205]] ([[User talk:182.177.214.205|talk]]) to last revision by 111.69.251.57 ([[WP:HG|HG]])
2007-12-03T17:13:09+00:00,175518328,175020114,0,220.227.133.254,Inflation,
2005-09-16T19:59:58+00:00,23358510,23358481,0,Causa sui,Inflation,Reverted edits by [[Special:Contributions/217.211.242.211|217.211.242.211]] to last version by WikiAce
2015-03-23T03:05:33+00:00,653103550,652781042,0,Hendrick 99,Inflation,/* Causes */ Excessive splitting of section.
2013-03-14T22:26:08+00:00,544210131,544209842,0,71.212.251.124,Inflation,ref introduced above
2019-10-05T17:13:31+00:00,919765274,917178502,0,Mathrick,Inflation,/* Causes */ grammar
2006-07-13T02:58:55+00:00,63528997,63183367,0,MrArt,Inflation,/* Labour */
2007-12-29T12:18:10+00:00,180786925,180401494,0,Cassowary,Inflation,contents shouldn't be above the text;
2020-07-13T06:10:45+00:00,967429563,967429386,0,Jerodlycett,Inflation,v2.03 - [[WP:WCW]] project (Missing end bold/italic)
2006-06-17T10:17:47+00:00,59088227,58908517,0,Ramneek,Inflation,
2006-12-02T17:08:57+00:00,91614369,91328117,0,Calltech,Inflation,revert spam link (second warning!)
2013-04-02T02:33:02+00:00,548253983,548253334,0,174.66.151.199,Inflation,/* History */
2016-08-08T17:44:07+00:00,733562762,733562650,0,Sanya3,Inflation,added [[Category:Economic problems]] using [[WP:HC|HotCat]]
2009-08-16T20:59:28+00:00,308358014,307863555,0,70.181.43.248,Inflation,
2015-06-29T13:59:07+00:00,669186768,669185590,0,Kirkchisholm,Inflation,cleaned up language
2017-06-07T22:16:54+00:00,784360147,784360072,0,Gobonobo,Inflation,Reverted 3 edits by [[Special:Contributions/45.112.227.208|45.112.227.208]] ([[User talk:45.112.227.208|talk]]) to last revision by 50.39.47.200. ([[WP:TW|TW]])
2017-02-25T19:58:59+00:00,767414086,767031328,0,2607:FEA8:3B9F:FD26:1164:C1C1:676:D966,Inflation,
2022-07-03T02:48:02+00:00,1096216649,1095628269,0,Jim.henderson,Inflation,/* Negative */ Pizza price list
2008-06-29T16:36:37+00:00,222487255,222487025,0,Natl1,Inflation,Reverted edits by [[Special:Contributions/122.167.154.95|122.167.154.95]] (using [[WP:HG|Huggle]])
2013-11-22T15:26:28+00:00,582827238,582827143,0,VS6507,Inflation,Reverted edits by [[Special:Contributions/103.20.135.101|103.20.135.101]] ([[User talk:103.20.135.101|talk]]): unexplained content removal ([[WP:HG|HG]])
2018-06-13T09:44:35+00:00,845666420,844953960,0,ShemStrawberry,Inflation,/* Gold standard */
2022-09-14T10:19:38+00:00,1110232157,1109916644,0,777sms,Inflation,"([[c:GR|GR]]) [[c:COM:FR|File renamed]]: [[File:UK and US, 1990-present monthly inflation rates.svg]] → [[File:UK and US 1989-present monthly CPI.svg]] [[c:COM:FR#FR1|Criterion 1]] (original uploader’s request)"
2012-10-12T18:37:24+00:00,517445334,517282964,0,Rurik the Varangian,Inflation,title
2008-07-31T21:03:46+00:00,229094719,229072327,0,65.30.107.86,Inflation,"""composition of baskets"" sentence unnecessary, nonsensical without context, and seems to contradict previous sentence."
2007-10-25T01:58:06+00:00,166891521,166866184,0,124.148.74.122,Inflation,/* Econometrics */
2010-01-08T13:27:39+00:00,336592017,336591948,0,87.126.24.150,Inflation,/* Further reading */
2012-03-30T04:21:30+00:00,484646602,484645927,0,Oscarjquintana,Inflation,
2008-05-23T14:37:30+00:00,214427134,214426696,0,Nesbit,Inflation,move BoE link to external links section
2022-03-23T01:56:48+00:00,1078738394,1078197521,0,Getsnoopy,Inflation,Clarified some phrases.
2012-04-04T01:17:42+00:00,485428799,484646602,0,171.252.2.53,Inflation,/* Measures */
2014-04-22T20:04:01+00:00,605344991,603683195,0,2.125.7.166,Inflation,/* Anti-classical or backing theory */ this is not substantially different from the quantity theory of money as the quantity theory of money covers an increase is money is not inflationary if there is an increase in the demand for money or real output
2014-01-03T21:55:37+00:00,589041244,589041000,0,155.70.39.45,Inflation,/* See also */
2008-02-19T23:57:08+00:00,192682126,192678144,0,Herbou,Inflation,[[WP:UNDO|Undid]] revision 192678144 by [[Special:Contributions/211.253.219.194|211.253.219.194]] ([[User talk:211.253.219.194|talk]]) Frivolous addition
2018-09-29T00:30:57+00:00,861652274,861015279,0,2804:1B2:180:7498:20A4:23B7:875:A22C,Inflation,Inflation (Zero) an object by Econometrics Matrixes e-book by Inspector Jorge Eifler de Vasconcellos Interpol Supervisor Inspector's by Econometrics Interpol Editor.
2006-05-02T20:22:19+00:00,51252344,51224593,0,64.231.65.3,Inflation,/* Measuring inflation */
2015-11-14T18:11:37+00:00,690641725,690641413,0,Zzuuzz,Inflation,Reverted edits by [[Special:Contribs/2600:1010:B140:AA91:A555:E0C0:8CB3:AA27|2600:1010:B140:AA91:A555:E0C0:8CB3:AA27]] ([[User talk:2600:1010:B140:AA91:A555:E0C0:8CB3:AA27|talk]]) to last version by ClueBot NG
2021-12-23T20:23:57+00:00,1061762668,1061762540,0,Randompointofview,Inflation,Reverted 1 edit by [[Special:Contributions/OrphankidfromT|OrphankidfromT]] ([[User talk:OrphankidfromT|talk]]): Citations not found
2008-06-16T04:07:33+00:00,219629999,219629849,0,NuclearWarfare,Inflation,Reverted edits by [[Special:Contributions/203.152.176.113|203.152.176.113]] to last version by Edward (using [[WP:HG|Huggle]])
2018-04-12T13:20:02+00:00,836061948,835932572,0,Jamiembrown,Inflation,Minor error in formatting
2013-01-14T22:09:13+00:00,533102283,531066873,0,195.191.133.242,Inflation,/* Measures */
2011-03-08T19:54:00+00:00,417833653,417833388,0,97.67.176.2,Inflation,
2013-09-16T11:11:23+00:00,573141214,573141154,0,Majash2020,Inflation,Reverted 2 edits by [[Special:Contributions/82.203.3.233|82.203.3.233]] ([[User talk:82.203.3.233|talk]]) to last revision by Discospinster. ([[WP:TW|TW]])
2011-11-12T12:47:26+00:00,460282600,459324157,0,82.139.171.66,Inflation,
2020-03-23T04:04:13+00:00,946916839,946916506,0,Jasper Deng,Inflation,Reverted edits by [[Special:Contribs/2405:204:5682:96C2:C07:E325:A3B7:92B6|2405:204:5682:96C2:C07:E325:A3B7:92B6]] ([[User talk:2405:204:5682:96C2:C07:E325:A3B7:92B6|talk]]) to last version by InternetArchiveBot
2020-02-20T07:41:30+00:00,941723915,941498873,0,Typpo,Inflation,Clean up external links and add more comprehensive World Bank directory
2007-11-23T03:06:17+00:00,173214072,172963829,0,72.229.182.220,Inflation,/* Related concepts */
2017-02-21T16:27:57+00:00,766694341,766690794,0,Seth Whales,Inflation,Typo
2015-11-07T21:12:47+00:00,689539676,687545708,0,2601:86:100:1500:859D:7C0D:98ED:E668,Inflation,
2010-08-15T20:57:07+00:00,379104581,379103170,0,Morphh,Inflation,"/* Austrian theory */ Retitled inline with the other school titles.  Stands out a little to call this one a ""theory"" and the others are a ""view"".  The term could imply a pov."
2008-02-13T03:14:03+00:00,191059163,190583025,0,99.226.146.88,Inflation,/* Role of inflation in the economy */
2007-07-18T19:47:59+00:00,145505148,145348161,0,Dodge1884,Inflation,Added Inflation Map
2016-01-20T10:41:45+00:00,700746004,700310784,0,160.83.36.130,Inflation,"/* Positive */ tagged dubious statement ""negative nominal interest rates are impossible"""
2021-04-28T06:43:45+00:00,1020279866,1020048223,0,DrewtheShrew,Inflation,
2013-09-17T12:11:32+00:00,573309862,573234794,0,Fraggle81,Inflation,Reverted 2 [[WP:AGF|good faith]] edits by [[Special:Contributions/108.218.105.224|108.218.105.224]] using [[WP:STiki|STiki]]
2008-03-27T08:25:57+00:00,201278813,201278638,0,James086,Inflation,Reverted edits by [[Special:Contributions/79.172.42.152|79.172.42.152]] ([[User talk:79.172.42.152|talk]]) to last version by Keilana
2009-08-07T19:23:18+00:00,306653021,306277396,0,24.234.189.136,Inflation,/* Monetarist view */
2009-05-10T14:28:22+00:00,289069405,289025570,0,219.74.106.207,Inflation,/* Positive */
2008-09-12T16:51:31+00:00,237964626,237956848,0,Morphh,Inflation,[[WP:UNDO|Undid]] revision 237956848 by [[Special:Contributions/Nsaa|Nsaa]] ([[User talk:Nsaa|talk]]) rv vandalism
2011-09-05T00:04:47+00:00,448489160,447920724,0,Erianna,Inflation,/* Issues in measuring */
2007-10-17T10:45:56+00:00,165156871,165152402,0,59.163.146.4,Inflation,/* Related concepts */
2021-11-14T15:48:18+00:00,1055215847,1055214239,0,Willondon,Inflation,Undid revision 1055214239 by [[Special:Contributions/2600:100D:B00A:CDC:A51A:6BBE:E0F5:2A3C|2600:100D:B00A:CDC:A51A:6BBE:E0F5:2A3C]] ([[User talk:2600:100D:B00A:CDC:A51A:6BBE:E0F5:2A3C|talk]]); unnecessary wikilink
2006-08-25T03:56:09+00:00,71741417,71740695,0,Sillsm,Inflation (disambiguation),
2006-12-11T22:07:43+00:00,93669050,93338042,0,TheRothbardian,Inflation,/* Austrian economics */
2006-09-03T02:12:47+00:00,73502508,71741417,0,Deville,Inflation (disambiguation),removing link to deleted article
2005-08-27T03:08:45+00:00,21931037,20368250,0,SaltyPig,Inflation (disambiguation),open up supposed economics definition
2008-01-19T00:20:18+00:00,185320626,169945489,0,Macaddct1984,Inflation (disambiguation),
2007-03-09T06:50:18+00:00,113778987,112841652,0,Blacklist,Inflation (disambiguation),article deleted
2005-11-22T22:29:30+00:00,29010974,27913070,0,Johnteslade,Inflation (disambiguation),Disambig page style repair ([[Wikipedia:WikiProject Disambiguation|you can help!]])
2020-06-07T23:52:11+00:00,961350614,961350484,0,66.90.149.252,Inflation (disambiguation),Undid revision 961350484 by [[Special:Contributions/66.90.149.252|66.90.149.252]] ([[User talk:66.90.149.252|talk]])
2006-04-11T07:17:18+00:00,47920854,44020223,0,71.234.143.52,Instant noodles,Copy-edit
2018-12-26T03:03:54+00:00,875376749,875008245,0,175.145.19.148,Instant noodles,
2013-11-16T20:41:01+00:00,581958830,581953519,0,87.114.210.173,Instant noodles,/* Toxic chemicals */
2005-09-07T23:39:11+00:00,22804636,22509525,0,Bkell,Instant noodles,touch-up
2008-03-15T05:32:35+00:00,198357379,197910381,0,Bonecrushah,Instant noodles,/* In South Korea */
2017-05-26T03:14:29+00:00,782313874,781893595,0,2601:186:4301:5F72:A98F:3CCD:EB85:D9CD,Instant noodles,"/* Oil */ Changed ""is"" to ""are"" in the sentence ""...The reason why consumers who (are) pursuing healthy diets would not buy this product."""
2022-02-13T15:36:36+00:00,1071630538,1071555825,0,Revirvlkodlaku,Instant noodles,Undid revision 1071555825 by [[Special:Contributions/125.253.54.35|125.253.54.35]] ([[User talk:125.253.54.35|talk]])
2022-07-10T23:00:31+00:00,1097473503,1097310432,0,85.76.64.159,Intel Core (microarchitecture),/* Technology */ Fixed various factual errors. And added a bit of info.
2008-04-17T14:20:49+00:00,206247449,206210506,0,Masudr,Intel Core (microarchitecture),rv
2017-05-27T05:10:02+00:00,782481952,779961573,0,Prinsipe Ybarro,Intel Core (microarchitecture),/* Synchronous memory modules */ Capitalization
2012-03-04T03:41:42+00:00,480087555,477951828,0,Cogiati,Intel Core (microarchitecture),
2020-08-05T11:07:12+00:00,971318320,968425462,0,PRL Dreams,Intel Core (microarchitecture),/* Technology */
2011-09-12T13:13:47+00:00,450074592,445854899,0,ArachanoxReal,Intel Core (microarchitecture),/* Technology */
2020-12-24T06:19:38+00:00,996045229,994620406,0,奧田95,Intel Core (microarchitecture),
2007-11-01T07:17:39+00:00,168466304,168465718,0,Masudr,Intel Core (microarchitecture),/* Desktops */ added E8190 and Wolfdale-3M codename
2009-10-31T18:39:41+00:00,323141629,323141193,0,173.50.233.227,Intel Core (microarchitecture),/* Steppings using 45&nbsp;nm process{{Anchor|Steppings using 45nm process}} */
2013-12-05T10:35:50+00:00,584670697,578453902,0,75.56.53.137,Intel Core (microarchitecture),/* Technology */
2014-12-27T07:38:34+00:00,639783721,633010365,0,24.154.139.53,Intel Core (microarchitecture),/* Technology */
2013-08-09T11:34:56+00:00,567805833,564780405,0,50.53.15.59,Intel Core (microarchitecture),/* See also */
2010-11-19T19:38:00+00:00,397729406,396683053,0,GoingBatty,International law,"[[WP:AWB/T|Typo fixing]], typos fixed: middle ages → Middle Ages using [[Project:AWB|AWB]] (7401)"
2021-09-27T01:02:07+00:00,1046698803,1040971485,0,Whoop whoop pull up,International law,
2019-04-21T10:17:51+00:00,893440024,893324824,0,60.50.237.85,International law,/* Treaties */
2015-07-23T22:11:58+00:00,672792289,667813261,0,2602:30A:C057:C8F0:8D47:CB20:4F9C:A4D6,International law,
2009-09-14T09:37:24+00:00,313803336,313440733,0,76.115.112.147,International law,[[WP:UNDO|Undid]] revision 313440733 by [[Special:Contributions/72.241.218.233|72.241.218.233]] ([[User talk:72.241.218.233|talk]])
2018-12-10T05:39:08+00:00,872944011,872809509,0,144.118.77.37,International law,/* International organisations */
2011-07-02T18:16:27+00:00,437426385,437081141,0,68.100.200.5,International law,annoying comma omission
2018-03-01T12:39:05+00:00,828248023,828247775,0,KylieTastic,International law,Reverted 1 edit by [[Special:Contributions/Omgitsshadowneos|Omgitsshadowneos]] ([[User talk:Omgitsshadowneos|talk]]) to last revision by ClueBot NG. ([[WP:TW|TW]])
2018-04-27T15:14:38+00:00,838522313,837866324,0,Mandruss,International law,change fixed thumbnail sizes to upright equivalents per [[WP:IMGSIZE]]
2016-03-29T15:23:48+00:00,712516091,700264515,0,A3camero,International law,Added link to comparative law page & better alphabetized the list
2014-07-11T12:55:46+00:00,616518857,616518804,0,120.28.125.185,International law,/* History */
2016-10-23T16:33:39+00:00,745835246,745835114,0,162.224.10.204,International law,
2019-04-15T18:47:55+00:00,892614580,891705652,0,Meltdown627,Interstate 45,corrected exits
2021-03-31T14:47:29+00:00,1015266479,1011457773,0,Nwbeeson,Interstate 45,"see ""Update 2021"" on Talk Page"
2011-08-04T18:42:08+00:00,443056419,438108474,0,Sgoldman10,Interstate 45,
2006-11-24T07:52:46+00:00,89791637,89188530,0,Dhanix,Interstate 45,/* Intersections with other interstates */
2012-08-06T09:47:11+00:00,506051157,506016408,0,Morriswa,Interstate 45,/* Interstate 345 */ Various corrections
2010-12-27T20:55:38+00:00,404519088,404336066,0,Mes tex,Interstate 45,/* Exit list */
2009-03-27T22:44:42+00:00,280101144,274491237,0,TJ Spyke,Interstate 45,fixes
2013-01-29T02:58:12+00:00,535451123,535426092,0,Great50,Interstate 45,
2020-04-24T18:58:20+00:00,952916421,951914282,0,Benjamin112,James Nachtwey,/* Awards */
2014-06-13T22:09:23+00:00,612819242,612819141,0,Alexlatham96,Interstate 45,
2006-08-23T05:00:50+00:00,71320601,71320544,0,Chrysalis,James Nachtwey,/* Equipment */
2008-01-29T05:03:39+00:00,187636251,187227014,0,76.68.104.74,James Nachtwey,"Canon was an advertiser (""sponsor"") on an Agency VII seminar.  However VII itself is a prestigious agency, which does not require nor accept sponsorship from any company."
2011-08-29T18:01:20+00:00,447350030,445989518,0,Merchantsofmisery,James Nachtwey,
2006-07-18T20:32:42+00:00,64532125,64529060,0,Hbdragon88,James Nachtwey,attempted to organize the info a little
2011-06-03T07:39:02+00:00,432313973,432313892,0,LockLockBoy,James Nachtwey,
2011-01-05T05:59:57+00:00,406035180,404769534,0,Prolog,Jean-Claude Romand,/* Aftermath */ rm vandalism
2019-05-01T13:32:39+00:00,895016853,891099661,0,80.223.109.223,Jean-Claude Romand,/* Aftermath */ Romand is getting released.
2016-11-16T04:19:17+00:00,749783287,749304922,0,160.3.110.188,Jean-Claude Romand,"He had an affair with a girlfriend, so it wouldn't be everyone in his family considering he had two"
2006-12-23T17:04:41+00:00,96123283,94259293,0,83.78.21.221,Jean-Claude Romand,activating link to geneva airport
2022-07-12T15:38:35+00:00,1097765569,1096383249,0,Adam8410,Jean-Claude Romand,french language text
2008-10-09T15:43:26+00:00,244152371,244119303,0,97.101.209.151,Jenna Jameson,/* Early career */
2014-09-26T01:24:30+00:00,627103045,627030007,0,Lightbreather,Jenna Jameson,lukeisback is [[WP:NOTRS]] per discussion at RSN closed 22 September 2014
2006-01-22T21:02:20+00:00,36261439,36128197,0,Nightscream,Jenna Jameson,/* Biography */ Sentence structure/syntax.
2009-08-18T22:50:16+00:00,308775602,308766928,0,Tpbradbury,Jenna Jameson,"eyes look inwards towards text per [[wp:mos]],"
2006-06-22T04:18:35+00:00,59942102,59942067,0,Ixfd64,Jenna Jameson,Reverted edits by [[Special:Contributions/130.63.235.254|130.63.235.254]] ([[User talk:130.63.235.254|talk]]) to last version by 84.202.22.13
2010-10-24T02:50:25+00:00,392526736,392268022,0,Zimbabweed,Jenna Jameson,/* Early career */ m
2007-07-01T07:13:38+00:00,141757429,103663933,0,24.68.249.197,Jesús Huerta de Soto,added category: Austrian school economist
2011-09-06T10:50:18+00:00,448730236,445182220,0,BMCyJCP,Jesús Huerta de Soto,
2013-06-30T18:20:24+00:00,562278475,562278269,0,86.173.85.156,Jesús Huerta de Soto,/* Gold standard */
2009-02-22T06:23:41+00:00,272435544,271839026,0,Legobot II,John Atchison,Date maintenance tags
2018-09-23T02:09:02+00:00,860787340,856844293,0,Donpayette,John Atchison,
2020-03-25T07:04:46+00:00,947257932,947257813,0,Johnsagent,John Atchison,/* Career */ added reference
2017-02-27T02:15:05+00:00,767635924,765042634,0,MB,John Gray (philosopher),Disambiguated: [[progress]] → [[progress (history)]]
2015-05-06T22:12:24+00:00,661165911,660658618,0,79.168.7.108,John Gray (philosopher),/* Criticism */
2010-09-29T14:10:21+00:00,387727590,387727469,0,138.251.224.239,John Gray (philosopher),
2022-08-25T22:32:44+00:00,1106683705,1093492116,0,72.95.130.125,John Gray (philosopher),/* Reviews of his work */Rm non English link
2011-06-28T22:07:49+00:00,436749099,436447614,0,Rabbabodrool,John Gray (philosopher),/* Quotations */
2016-10-04T18:49:23+00:00,742613089,737770517,0,84.13.200.130,John Gray (philosopher),
2013-08-20T17:07:34+00:00,569436773,569436502,0,DangerouslyPersuasiveWriter,John Maynard Keynes,Reverted to revision 568567401 by Maunus: probably a mistake. ([[WP:TW|TW]])
2015-03-14T15:48:45+00:00,651348367,651347171,0,Jamool66,John Gray (philosopher),Removed comma
2016-09-20T18:18:23+00:00,740379962,740379805,0,Cody2118,John Maynard Keynes,
2006-03-28T20:51:43+00:00,45902946,45902101,0,Mpntod,John Maynard Keynes,/* Death */  RVV
2008-05-10T23:23:55+00:00,211554223,211525349,0,84.203.181.35,John Maynard Keynes,
2019-06-14T13:52:29+00:00,901820601,901760170,0,Dolphin51,John Maynard Keynes,/* Legacy */ Eliminated careless use of a pronoun. King George VI didn’t win the 1945 general election.
2019-11-22T12:10:49+00:00,927422810,926410435,0,CrazyPeople23,John Maynard Keynes,
2010-08-23T16:42:52+00:00,380526674,380383938,0,Mno,John Maynard Keynes,/* Career */ grammar
2008-02-22T16:30:15+00:00,193293877,193000356,0,216.113.168.147,John Maynard Keynes,/* Economic thought */ Corrected verb tense in a verb phrase
2008-12-30T23:16:52+00:00,260977702,260977590,0,D S Lamont,John Maynard Keynes,/* External links */
2022-08-04T16:42:34+00:00,1102352846,1099754338,0,66.158.153.65,John Maynard Keynes,
2009-01-31T23:48:24+00:00,267726083,267699116,0,Ergateesuk,John Maynard Keynes,"Spelling, typos and reference update"
2010-05-03T09:05:03+00:00,359809986,359809912,0,70.226.164.249,John Maynard Keynes,/* Publications */
2017-04-04T19:28:30+00:00,773846713,773846373,0,GermanJoe,John Maynard Keynes,/* Further reading */  fix - not references
2007-10-27T18:08:40+00:00,167468146,164077226,0,PoliceChief,John Stalker,
2010-04-02T23:01:24+00:00,353630345,350718498,0,Destynova,John Stalker,/* Retirement */
2009-07-29T20:51:37+00:00,304950897,300402867,0,Philip Cross,John Stalker,fmt
2022-09-27T03:50:33+00:00,1112603470,1103486379,0,Red Director,John Stalker,"Adding local [[Wikipedia:Short description|short description]]: ""British police chief (1939–2019)"", overriding Wikidata description ""British police chief"""
2006-08-14T12:13:27+00:00,69570088,68092156,0,Robertkerans,John Stalker,
2020-02-16T23:23:37+00:00,941160588,936078530,0,Samuel J Walker,John Stalker,Guardian obit gives DOB as 14 April.
2018-02-22T10:33:45+00:00,827030015,827003829,0,First Light,Kali,Reverted edits by [[Special:Contribs/2405:204:401E:9049:0:0:1722:80A4|2405:204:401E:9049:0:0:1722:80A4]] ([[User talk:2405:204:401E:9049:0:0:1722:80A4|talk]]) to last version by 125.168.38.254
2019-08-21T12:38:00+00:00,911830707,911830547,0,MelbourneStar,Kali,Reverted edits by [[Special:Contributions/2.50.135.142|2.50.135.142]] ([[User talk:2.50.135.142|talk]]) ([[WP:HG|HG]]) (3.4.9)
2006-08-19T02:13:58+00:00,70519030,69962869,0,70.34.240.92,Kali,
2016-10-28T07:58:58+00:00,746580668,746580535,0,Deucha,Kali,/* Daksinakali */
2015-05-12T21:18:48+00:00,662062348,662062310,0,IronGargoyle,Kali,Reverted edits by [[Special:Contributions/75.175.60.198|75.175.60.198]] ([[User talk:75.175.60.198|talk]]) ([[WP:HG|HG]])
2015-09-23T06:12:36+00:00,682357556,682314184,0,Civilian98,Kali,Undid revision 682314184 by [[Special:Contributions/64.107.125.51|64.107.125.51]] ([[User talk:64.107.125.51|talk]])
2010-02-09T16:28:00+00:00,342954002,342953661,0,Redtigerxyz,Kali,/* In Tantra */ yantra img
2007-09-19T17:14:27+00:00,158984928,158984809,0,Redtigerxyz,Kali,/* Kali and Shiva */
2006-09-18T22:32:21+00:00,76482222,76480971,0,Mattisse,Karnataka,/* Temples */ typo
2008-12-20T05:17:47+00:00,259107262,258783426,0,ProtectionTaggingBot,Karnataka,Add protection template.
2014-12-05T06:59:53+00:00,636724585,636722373,0,Shrikanthv,Karnataka,Reverted 1 pending edit by [[Special:Contributions/117.200.122.7|117.200.122.7]] to revision 636490101 by Scalhotrod: not required jog falls article says where it is
2013-09-26T19:42:36+00:00,574647187,574647088,0,LogX,Karnataka,[[Help:Reverting|Reverted]] 1 [[Wikipedia:Pending changes|pending]] edit by [[Special:Contributions/Alende devasia|Alende devasia]] to revision 573995915 by David in DC
2012-10-09T17:14:06+00:00,516847498,516803650,0,Daudzoss,Karnataka,"removed superfluous top text ""Indian Roller."" above the disambiguation"
2015-07-20T16:21:28+00:00,672292266,672291864,0,BilCat,Karnataka,Rv unconstructive edits
2012-09-10T06:51:07+00:00,511650697,509144933,0,Scythia,Karnataka,/* Language */
2011-01-28T06:47:14+00:00,410519249,409979487,0,LeoFrank,Karnataka,/* History */ rm non-existent page link
2007-09-18T15:27:10+00:00,158742141,158742097,0,Kukini,Karnataka,Reverted edits by [[Special:Contributions/59.96.139.8|59.96.139.8]] ([[User talk:59.96.139.8|talk]]) to last version by Dineshkannambadi
2016-03-08T05:49:23+00:00,708924083,687446110,0,113.30.242.82,Katpadi,"/* Important statues, cinema */"
2010-06-13T04:01:09+00:00,367712880,367452427,0,DASHBot,Karnataka,[[WP:BOT|BOT]]: 1 dead links archived. (genfixes) [[User:DASHBot/W|details &#124; shutoff]]
2017-03-06T05:25:53+00:00,768858483,734661017,0,JJMC89 bot,Katpadi,"Migrate {{Infobox settlement}} coordinates parameters to {{Coord}}, see [[Wikipedia:Coordinates in infoboxes]]"
2011-07-21T14:31:51+00:00,440658870,429114345,0,115.248.50.20,Katpadi,/* Vellore Institute of Technology University (VIT) */
2010-11-12T13:33:54+00:00,396314253,379152927,0,115.184.120.124,Katpadi,
2012-07-16T12:51:23+00:00,502612502,502606807,0,Anbu121,Katpadi,Undid revision 502606807 by [[Special:Contributions/103.5.84.141|103.5.84.141]] ([[User talk:103.5.84.141|talk]])reverting test edit
2016-07-01T06:08:24+00:00,727782877,719166858,0,27.63.10.50,Katpadi,
2011-05-14T18:07:43+00:00,429114345,428777945,0,Zundark,Katpadi,no such audio file
2017-10-06T11:23:20+00:00,804048317,796836503,0,Sri Harsha Bhogi,Katpadi,As per [[WP: NOINDICSCRIPT]]
2014-10-21T15:29:35+00:00,630525134,630525030,0,173.95.188.181,Kenneth Grahame,
2017-08-20T08:13:31+00:00,796356914,795260916,0,Ender's Shadow Snr,Kenneth Grahame,Add the existance of adaptions other than the Disney ones.
2005-11-14T20:33:47+00:00,28330450,22586739,0,4.236.105.165,Kenneth Grahame,
2019-11-30T20:47:47+00:00,928661778,925283474,0,Bmcln1,Kenneth Grahame,Invisible spaces removed
2006-11-18T14:22:47+00:00,88620785,86520328,0,86.200.51.66,Kenneth Grahame,/* Works */
2022-05-30T15:35:57+00:00,1090641019,1088085698,0,Paulannis,Kenneth Grahame,"/* Writing */ Corrected a source of confusion: Grahame's penultimate book was The Wind in the Willows, if the posthumous Bertie's Escapade, listed below, is counted."
2014-03-02T17:40:49+00:00,597835126,597833953,0,Epicgenius,Kenneth Grahame,Reverted 2 edits by [[Special:Contributions/86.168.122.12|86.168.122.12]] identified as test/vandalism using [[WP:STiki|STiki]] ([[user:Epicgenius/Terms and Conditions|Mistake?]] [[user talk:Epicgenius|Report it.]])
2008-07-14T10:47:43+00:00,225571044,225414301,0,Khunglongcon,Kenneth Grahame,
2012-06-04T01:28:40+00:00,495864685,495851757,0,Xxanthippe,Kenneth Grahame,Reverted 3 edits by [[Special:Contributions/Bibliodome Ltd|Bibliodome Ltd]] ([[User talk:Bibliodome Ltd|talk]]): Remove promotional material. ([[WP:TW|TW]])
2017-07-10T18:21:14+00:00,789959501,789132899,0,James 4,Keynesian economics,
2019-12-07T23:40:31+00:00,929746724,929612213,0,Michael Frind,Keynesian economics,/* Keynes's early writings */ Minor punctuation
2005-12-10T04:33:01+00:00,30792228,30658718,0,PaulHanson,Keynesian economics,consolidated categories
2010-11-15T19:28:38+00:00,396963574,396764928,0,72.248.210.37,Keynesian economics,/* Main theories */
2008-12-24T10:43:37+00:00,259889896,259339930,0,Obersachsebot,Keynesian economics,robot  Removing: [[sk:Keynesianizmus]]
2019-08-15T07:07:44+00:00,910897259,910896819,0,Colin.champion,Keynesian economics,/* The Keynesian multiplier */ Reword
2008-05-21T08:54:58+00:00,213909055,213872044,0,Paul Richter,Keynesian economics,link
2014-10-17T17:04:33+00:00,630002837,625859972,0,82.40.71.182,King's Cross Central,
2019-03-27T15:09:22+00:00,889725348,884438297,0,Acabashi,King's Cross Central,Rm white space /
2006-08-28T19:09:51+00:00,72443492,72443114,0,Stetay,King's Cross Central,/* Organisations within or immediately adjacent to the area */ dab
2022-08-26T00:24:00+00:00,1106698431,1106698172,0,Cymelones,King's Cross Central,
2009-02-10T18:31:05+00:00,269816821,264903525,0,Kbthompson,King's Cross Central,"clean up, Replaced: [[King's Cross railway station| → [[London King's Cross railway station| using [[Project:AutoWikiBrowser|AWB]]"
2010-04-06T07:21:55+00:00,354270537,352239332,0,82.240.244.213,King's Cross Central,/* External links */ added local webpage
2007-07-22T09:39:30+00:00,146287639,146283053,0,88.107.249.152,King's Cross Central,/* External links */  wrong article
2010-04-01T07:07:35+00:00,353307512,344412372,0,132.3.9.68,Korat Royal Thai Air Force Base,/* Cope Tiger */
2020-08-28T23:06:54+00:00,975512163,974807524,0,104.33.197.249,Korat Royal Thai Air Force Base,/* Other major USAF units assigned */
2006-12-25T02:17:22+00:00,96361010,94883520,0,Bwmoll3,Korat Royal Thai Air Force Base,/* 388th Tactical Fighter Wing */
2011-06-03T02:12:23+00:00,432280749,430589064,0,76.226.236.125,Korat Royal Thai Air Force Base,
2017-01-15T17:17:19+00:00,760213398,759977867,0,98.219.45.56,Korat Royal Thai Air Force Base,restored formatting.
2013-10-31T04:55:09+00:00,579570774,579570547,0,Reedmalloy,Korat Royal Thai Air Force Base,/* United States Advisory Forces */
2012-05-24T00:20:50+00:00,494073910,488311612,0,Bwmoll3,Korat Royal Thai Air Force Base,edited infobox
2012-09-04T11:53:33+00:00,510745593,510207058,0,Jafeluv,Korat Royal Thai Air Force Base,Jafeluv moved page [[RTAFB Korat]] to [[Korat Royal Thai Air Force Base]] over redirect: per RM
2012-07-14T17:28:01+00:00,502259999,479184174,0,Ptbotgourou,Kremer prize,r2.7.2) (Robot: Adding [[fr:Prix Kremer]]
2007-04-03T08:11:59+00:00,119925753,86273940,0,Ozzmosis,Kremer prize,"wikidates, fmt"
2005-05-31T21:28:48+00:00,17264522,14503464,0,24.247.86.67,Kremer prize,spelling fix
2015-02-28T20:04:44+00:00,649272129,649272042,0,PhoenixBlitzkrieg,Kshatriya,/* top */
2012-11-21T12:23:28+00:00,524180959,524177084,0,MatthewVanitas,Kshatriya,Reverted [[WP:AGF|good faith]] edits by [[Special:Contributions/122.177.174.35|122.177.174.35]] ([[User talk:122.177.174.35|talk]]): Rv uncited. ([[WP:TW|TW]])
2020-06-01T11:55:09+00:00,960154757,958990940,0,2409:4042:269D:6B9D:E2A:BD9B:327F:E288,Kshatriya,/* Symbols */
2019-05-24T08:05:26+00:00,898541634,898538047,0,Joshua Jonathan,Kshatriya,Reverted 2 edits by [[Special:Contributions/Kshatriyarule|Kshatriyarule]] ([[User talk:Kshatriyarule|talk]]): [[WP:NOTHERE]] ([[WP:TW|TW]])
2007-08-15T08:39:12+00:00,151348441,151273942,0,Leolaursen,Kshatriya,Repairing link to disambiguation page - [[Wikipedia:Disambiguation pages with links|You can help!]]
2012-01-01T08:15:48+00:00,468905340,461873293,0,관인생략,Last Train Home (film),/* Awards */
2007-06-19T11:46:10+00:00,139182294,139182238,0,Maxim,Led Zeppelin,Reverted 1 edit by [[Special:Contributions/172.202.86.35|172.202.86.35]] identified as [[WP:VAND|vandalism]] to last revision by [[User:Soumyasch|Soumyasch]]. using [[WP:TWINKLE|TW]]
2018-10-22T13:51:49+00:00,865211134,865210647,0,Shellwood,Led Zeppelin,Reverted edits by [[Special:Contributions/BenDoverNow123|BenDoverNow123]] ([[User talk:BenDoverNow123|talk]]): not adhering to [[WP:NPOV|neutral point of view]] ([[WP:HG|HG]]) (3.4.4)
2020-05-15T23:46:07+00:00,956908063,956884101,0,SolarFlash,Led Zeppelin,"Reverted [[WP:AGF|good faith]] edits by [[Special:Contributions/Segavisions1991|Segavisions1991]] ([[User talk:Segavisions1991|talk]]): Previously unreleased (new) material, so it isn't considered a compilation album ([[WP:TW|TW]])"
2012-12-18T01:07:10+00:00,528562669,528558119,0,Sabrebd,Led Zeppelin,Undid revision 528558119 by [[Special:Contributions/77.97.207.51|77.97.207.51]] ([[User talk:77.97.207.51|talk]])back to the sourced version
2011-08-12T21:48:10+00:00,444512371,444510952,0,Ttony21,Led Zeppelin,Reverted edits by [[Special:Contributions/Lolhwaet|Lolhwaet]] ([[User talk:Lolhwaet|talk]]) to last revision by Wikiacc ([[WP:HG|HG]])
2014-12-11T18:34:29+00:00,637657311,637651735,0,Sabrebd,Led Zeppelin,Undid revision 637651735 by [[Special:Contributions/168.68.129.127|168.68.129.127]] ([[User talk:168.68.129.127|talk]])Restore British English
2009-07-05T13:54:27+00:00,300409158,300323967,0,Piriczki,Led Zeppelin,"/* ""The biggest band in the world"" (1971–1977) */ Initial reports of amount being $202,600 were in error, clarified in follow up article."
2017-07-21T05:02:08+00:00,791578081,791055358,0,2606:6000:621A:D700:19DA:FE30:FD93:5640,Led Zeppelin,
2013-05-14T02:45:54+00:00,554992140,554992077,0,Evanh2008,Led Zeppelin,/* Bonham's death and break-up: 1978–80 */ was
2012-08-24T17:21:20+00:00,508961601,508961408,0,Hipal,Lego Mindstorms,"external links need cleanup throughout article - references should be formatted as such, the rest moved to External links section or removed - multiple linkfarms in article"
2007-02-03T18:01:41+00:00,105371614,105370886,0,156.34.218.167,Led Zeppelin,reverting vandalism
2006-01-20T14:21:39+00:00,35955798,35947199,0,Johnleemk,Lego Mindstorms,Reverted edits by [[Special:Contributions/200.17.89.80|200.17.89.80]] ([[User talk:200.17.89.80|talk]]) to last version by Felsir
2022-08-01T07:50:15+00:00,1101678255,1101649946,0,Artem.G,Lego Mindstorms,Undid revision 1101649946 by [[Special:Contributions/72.130.50.255|72.130.50.255]] ([[User talk:72.130.50.255|talk]])
2012-03-12T05:04:24+00:00,481464184,481464124,0,222.152.99.135,Lego Mindstorms,/* RCX */
2011-11-25T02:14:42+00:00,462347432,461807013,0,Avery.mabojie,Lego Mindstorms,/* Lego Mindstorms NXT 2.0 */
2008-05-02T21:19:29+00:00,209779542,209779265,0,Ghettoblaster,Lego Mindstorms,
2008-03-11T10:52:56+00:00,197447343,197012038,0,GreenReaper,Lego Mindstorms,Mindstorms originated from the programmable sensor blocks used in the [[Lego Dacta]] line of educational toys.
2018-08-31T10:50:42+00:00,857387374,851845735,0,83.18.101.64,Lego Mindstorms,/* Programming languages */ Fix a typo
2021-10-31T06:58:49+00:00,1052814431,1051102122,0,Striker2020,Lego Mindstorms,/* See also */
2014-08-17T16:09:02+00:00,621642071,621187157,0,Chmarkine,Lego Mindstorms,"/* Programming languages */change to https if the server sends [[HTTP Strict Transport Security|HSTS]] header, replaced: http://pypi.python.org → https://pypi.python.org using [[Project:AWB|AWB]]"
2009-05-09T01:50:05+00:00,288787538,288012064,0,96.233.17.130,Lego Mindstorms,
2019-01-02T06:02:46+00:00,876420851,874756584,0,IJBall,Leonard Fraser,"Update link. Removing reference using IMDb as a source, as per [[WP:RS/IMDb]]."
2014-08-18T15:12:01+00:00,621781198,593205924,0,89.101.100.11,Leonard Fraser,/* Crimes */
2017-05-21T04:58:52+00:00,781425900,773045139,0,Stizzleswick,Leonard Fraser,"/* Biography */ Fixed grammar, interpunctuation"
2017-08-03T21:45:05+00:00,793776959,781425900,0,161.168.251.107,Leonard Fraser,
2020-02-26T11:23:57+00:00,942716738,936464081,0,2001:818:EB7D:AE00:B988:1D28:3FD6:3734,Leonard Fraser,
2007-11-08T05:43:48+00:00,170044229,163925452,0,Canadian Paul,Leonard Fraser,Minor fix
2010-06-12T11:51:10+00:00,367593607,367592641,0,Salih,Leonard Fraser,Undid revision 367592641 by [[Special:Contributions/117.204.125.94|117.204.125.94]] ([[User talk:117.204.125.94|talk]]); unexplained date change
2008-01-24T03:20:24+00:00,186498629,186484598,0,Zanders5k,Libertarianism,Not sure this was necessary
2019-07-10T20:44:58+00:00,905703889,905017004,0,PhilLiberty,Libertarianism,libertarian capitalism instead of disparaging term
2007-08-02T02:40:15+00:00,148633359,148424693,0,Uthbrian,Libertarianism,/* History */ +see also
2007-01-13T08:16:34+00:00,100406431,100405157,0,Anarcho-capitalism,Libertarianism,
2007-10-13T02:59:19+00:00,164195177,164195120,0,Savie Kumara,Libertarianism,Revert to revision 163971449 dated 2007-10-12 03:48:07 by Operation Spooner using [[:en:Wikipedia:Tools/Navigation_popups|popups]]
2021-07-22T17:58:10+00:00,1034940639,1034714568,0,84.69.182.103,Libertarianism,"Undid revision 1034714568 by [[Special:Contributions/84.69.182.103|84.69.182.103]] ([[User talk:84.69.182.103|talk]])  I came up with a way to make the quote accessible, hopefully it's OK); replaced an apostrophe in the quote with an entity as quotes truncate at apostrophes); chapter-url from ref removed as it's identical to main url and was generating a check url error"
2016-08-09T22:02:02+00:00,733754003,733753698,0,JayJasper,Libertarianism,Reverted to revision 733752952 by [[Special:Contributions/ClueBot NG|ClueBot NG]] ([[User talk:ClueBot NG|talk]]): - rvv. ([[WP:TW|TW]])
2006-03-08T03:11:22+00:00,42749556,42711808,0,DocGov,Libertarianism,/* Principles */ clean-up
2022-03-11T01:24:52+00:00,1076419399,1076378651,0,Tim Smith,Libertarianism,hatnote for disambiguation page
2009-04-22T16:04:23+00:00,285466725,284859150,0,82.2.7.184,Libertarianism,
2006-07-12T12:38:16+00:00,63401160,63392941,0,Pichvi~enwiki,Libertarianism,
2021-06-01T17:18:59+00:00,1026332063,1023258310,0,92.29.219.156,Libertarianism,
2014-03-05T23:07:54+00:00,598323736,598314717,0,Lockean One,Libertarianism,"Added wiki-link for ""The Discovery of Freedom""."
2012-02-04T02:17:05+00:00,474891047,474890998,0,99.101.200.124,Libertarianism,
2007-04-09T12:56:10+00:00,121410563,121410380,0,58.170.172.251,Libertarianism,
2007-10-04T17:32:34+00:00,162281321,162281277,0,Moreschi,Libertarianism,Reverted edits by [[Special:Contributions/216.125.163.51|216.125.163.51]] ([[User talk:216.125.163.51|talk]]) to last version by Mindmatrix
2005-12-06T03:56:17+00:00,30303014,30275066,0,RJII,Libertarianism,/* Sites about libertarianism */ The Political Compass and Why Libertarianism is Not Right Wing
2011-04-16T05:05:44+00:00,424318431,424010860,0,76.211.237.218,Libertarianism,/* Left-libertarianism */ adding missing space
2006-05-27T16:31:12+00:00,55433810,55408575,0,Rehpotsirhc,Libertarianism,Revert to revision 55301125 using [[:en:Wikipedia:Tools/Navigation_popups|popups]]
2016-09-25T19:20:06+00:00,741158103,741097324,0,45.72.155.56,Libertarianism,"Removed ""Will Joseph"" from first line"
2011-12-14T07:35:59+00:00,465777568,465643478,0,86.176.188.116,Libertarianism,/* Philosophers influential to libertarianism */
2021-04-15T06:03:47+00:00,1017897385,1017256133,0,Xpander1,Libertarianism,"Linked to ""Paternalism"""
2006-09-02T06:57:17+00:00,73361341,73360356,0,Kielsky,Libertarianism,/* The libertarian movement */
2009-11-18T03:54:22+00:00,326473117,326129636,0,75.39.93.243,Libertarianism,/* Usage by pro-property movements */
2021-10-27T06:36:35+00:00,1052072145,1051794450,0,Red dwarf,Libertarianism,Added comma
2019-02-19T14:42:44+00:00,884098679,884032935,0,95.234.153.248,Libertarianism,
2013-09-18T04:48:37+00:00,573452071,573451756,0,Donner60,Libertarianism,Reverted 1 edit by [[Special:Contributions/68.231.83.185|68.231.83.185]] ([[User talk:68.231.83.185|talk]]) to last revision by MisterDub. ([[WP:TW|TW]])
2007-10-10T21:24:20+00:00,163658885,162281321,0,Waninge,Libertarianism,/* Principles */ added wikilink
2017-02-24T23:44:15+00:00,767278163,767153579,0,2601:2C4:300:6B30:11F6:9331:F85E:1F13,Libertarianism,Removed a opinion from the page instead of facts.
2019-01-31T00:04:41+00:00,881027870,881027680,0,2601:940:C000:A3:5DD0:606C:EB25:F90E,Libertarianism,
2005-10-15T05:47:45+00:00,25565582,25515436,0,Causa sui,Libertarianism,rv: not a link repository
2016-01-22T08:47:01+00:00,701068198,701061613,0,Aoidh,Libertarianism,"Undid revision 701061613 by [[Special:Contributions/Spacemountainmike|Spacemountainmike]] ([[User talk:Spacemountainmike|talk]]) Libertarianism is not the same as the Libertarian party, that's a different article. These are also unsourced."
2006-01-14T03:35:16+00:00,35104138,35103950,0,72.226.207.86,Libertarianism,/* Publications and Websites about Libertarianism */
2018-06-14T01:22:21+00:00,845772162,845771989,0,JadenLarson3,Libertarianism,Comma error!
2013-12-20T14:19:55+00:00,586952114,586928228,0,Epicgenius,Libertarianism,hatnote
2021-04-11T19:02:33+00:00,1017256133,1016815020,0,92.249.211.124,Libertarianism,"/* Libertarian socialism */ such an -> such as, typo"
2006-09-19T12:51:49+00:00,76573943,76470693,0,4.152.243.132,Libertarianism,/* Principles */  public property
2019-05-29T23:46:01+00:00,899426042,899426037,0,Boothsift,Libertarianism,Reverted edits by [[Special:Contribs/99.31.208.15|99.31.208.15]] ([[User talk:99.31.208.15|talk]]) to last version by IznoRepeat
2012-08-26T06:32:47+00:00,509204473,508780602,0,Neo139,Libertarianism,Disambiguate [[Libertarian Party]] to [[Libertarian Party (United States)]] using [[:en:Wikipedia:Tools/Navigation_popups|popups]]
2020-10-05T21:41:25+00:00,982046580,982046175,0,Blindlynx,Libertarianism,Undid revision 982046175 by [[Special:Contributions/191.163.98.28|191.163.98.28]] ([[User talk:191.163.98.28|talk]])
2016-06-03T11:06:49+00:00,723495071,723121344,0,Interpuncts,Libertarianism,/* Anarcho-capitalism */
2008-09-04T18:50:33+00:00,236290459,236289967,0,JayJasper,Libertarianism,[[WP:UNDO|Undid]] revision 236289967 by [[Special:Contributions/189.176.250.48|189.176.250.48]] ([[User talk:189.176.250.48|talk]]) rv. good faith edit
2011-12-23T19:25:22+00:00,467382440,467266530,0,2.49.180.98,Libertarianism,I added a quote by the late Michael Hoy to illustrate that many libertarians do not equate libertarianism with the right-wing Libertarian Party of America.  I am a doctoral student of political sociology at Huddersfield researching Libertarians.
2005-09-07T17:03:37+00:00,22782117,22724507,0,RJII,Libertarianism,"noting that they support prohibition of fraud by business ..just inserted one word ..""fraud"""
2022-01-16T17:29:36+00:00,1066070007,1065773070,0,Declamados,Libertarianism,/* Contemporary libertarian organizations */ I have added a link to the reference.
2022-10-11T07:53:59+00:00,1115398132,1115177555,0,Kailash29792,Libertarianism,clean up
2021-01-07T19:45:25+00:00,998948360,998359123,0,Sunray,Libertarianism,/* Criticism */
2007-07-24T19:59:50+00:00,146831679,146229246,0,Miliberty,Libertarianism,
2020-04-25T19:12:49+00:00,953110085,952310668,0,Sal2100,Libertarianism,/* Contemporary libertarianism in the United States */ avoiding redirect
2019-07-12T17:25:43+00:00,905964225,905959981,0,79.53.62.185,Libertarianism,
2011-07-26T13:25:09+00:00,441529171,441519677,0,71.141.235.190,Libertarianism,/* Descriptions by prominent libertarian organizations */
2005-11-21T03:11:51+00:00,28877515,28874668,0,71.96.165.158,Libertarianism,
2006-10-27T03:34:33+00:00,83983785,83893700,0,134.10.2.125,Libertarianism,/* Libertarian policy */
2006-02-20T14:31:45+00:00,40432105,40431755,0,129.67.108.121,Libertarianism,cohen book added
2015-09-22T02:46:06+00:00,682186280,681850956,0,Niceguyedc,Libertarianism,v1.36 - Repaired 1 link to disambiguation page - [[WP:DPL|(You can help)]] - [[James Fallon]] / [[WP:WCW]] project (Square brackets without correct end - External link with a line break - Spelling and typography)
2018-12-31T16:53:22+00:00,876173338,874288279,0,SpeedRunnerOfPersia,Libertarianism,
2015-06-25T03:24:14+00:00,668564731,667931918,0,Sophroson,Libertarianism,"""Judgement"" to ""judgment."" The silent E in ""judge"" is dropped when the suffix ""-ment"" is added."
2007-05-03T04:36:22+00:00,127877188,127836786,0,Crusaderoftruth,Libertarianism,reversing Georgegurgell's vandalism
2018-09-19T22:31:03+00:00,860328788,859584901,0,72.47.64.224,Libertarianism,
2014-12-13T05:20:57+00:00,637870792,637862915,0,Jdcod,Libertarianism,Redundant info
2021-09-17T01:40:28+00:00,1044777009,1044776090,0,MusikBot II,Libertarianism,Adding missing protection template ([[User:MusikBot II/FixPP/FAQ|more info]])
2010-08-06T03:18:03+00:00,377417558,377417211,0,Seven days seven nights,Libertarianism,
2007-10-30T00:32:14+00:00,167975028,167974850,0,Svetovid,Libertarianism,/* Libertarian politics */  un-encyclopaedic
2014-05-25T15:40:00+00:00,610082950,610036895,0,Aubreybardo,Libertarianism,/* External links */
2018-11-11T06:32:18+00:00,868285572,868135440,0,24.1.228.190,Libertarianism,/* Etymology */
2019-07-14T02:40:47+00:00,906164792,905964225,0,79.53.62.185,Libertarianism,/* Philosophy */
2007-08-12T10:33:22+00:00,150744281,150619076,0,SPTimoshenko,Libertarianism,/* External links */ Added link to the Libertarian Alliance.
2020-05-19T01:18:51+00:00,957472162,957471206,0,Flyedit32,Libertarianism,/* Contemporary libertarianism in the United States */ sizing
2005-12-27T15:47:01+00:00,32883046,32837978,0,RJII,Libertarianism,"changed ""redistribution"" to ""transfers"" as its more encompassing"
2008-10-09T07:44:43+00:00,244084784,244084464,0,161.57.213.91,Libertarianism,
2005-10-07T14:50:39+00:00,24979604,24872557,0,The Land,Libertarianism,/* See also */
2007-10-03T11:29:43+00:00,161992666,160737560,0,192.165.213.18,Libor,/* Technical features */
2019-12-04T08:49:15+00:00,929203226,925797711,0,JJMC89 bot III,Libor,Moving [[:Category:Swap (finance)]] to [[:Category:Swaps (finance)]] per [[Wikipedia:Categories for discussion/Speedy]]
2008-12-04T23:16:58+00:00,255932996,254603706,0,Hughcharlesparker,Libor,"/* External links */ reformatting, and changing the BBA link to point to their LIBOR page"
2020-09-28T02:13:02+00:00,980722252,979866732,0,174.250.193.87,Libor,"An ""interest rate"" is a PERCENTAGE. Not a ""currency"". There is no ""LIBOR in USD"" and ""USD"" in circulation isn't even one percent of the ""$350 trillion in derivatives"" supposedly ""tied to LIBOR"". 

Somebody is gonna have a lot of 'splainin to do their ""people"" when the sh!t hits the fan on that ""Ponzi scheme"". You can't ""derive"" money out of thin air via interest rate ""swaps"" and ""fixing"" and all the other ""schemes"" the limeys in London have been using to ""make money"" that doesn't exist and co..."
2010-07-10T13:51:07+00:00,372742950,372742886,0,95.148.238.58,Libor,/* Technical features */
2022-08-31T18:47:38+00:00,1107759151,1106518957,0,Mandarax,Libor,Correct spelling
2011-12-05T20:40:25+00:00,464270549,464269563,0,72Dino,Libor,LIBOR => Libor per talk page
2010-12-22T21:20:39+00:00,403766525,402418243,0,69.181.106.63,Libor,/* External links */ invalid link
2021-08-24T00:53:12+00:00,1040341863,1040237096,0,REMP81,Lingchi,/* Western perceptions */
2012-02-29T20:23:15+00:00,479532508,475199020,0,JustAGal,Lingchi,"Disambiguated: [[James Elkins]] → [[James Elkins (art critic)]], [[The Conqueror]] → [[The Conqueror (film)]]"
2020-06-12T23:34:31+00:00,962249904,962172256,0,RovingPersonalityConstruct,Lingchi,Rv unexplained changes.
2016-05-28T18:12:37+00:00,722523756,722523671,0,DReifGalaxyM31,Lingchi,/* Television */
2009-11-17T10:20:33+00:00,326323815,326316102,0,Trigaranus,Lingchi,[[WP:UNDO|Undid]] revision 326316102 by [[Special:Contributions/Loyalist Cannons|Loyalist Cannons]]  - Australia and Times are not very European
2020-07-10T15:55:18+00:00,967010836,967009580,0,Primergrey,Lingchi,/* See also */
2014-12-06T12:44:18+00:00,636880153,636880109,0,Johannes Rohr,Lingchi,/* Literature */
2011-12-09T07:07:11+00:00,464913807,402597373,0,Aldo samulo,Lion Air Australia,/* Sources */
2010-12-15T22:50:54+00:00,402597373,396692691,0,121.91.205.129,Lion Air Australia,/* Ownership and plans */
2009-08-21T20:55:24+00:00,309313314,301530676,0,86.27.155.160,Lion Air Australia,
2009-12-30T11:29:02+00:00,334895478,264768056,0,Boyd Reimer,Liquidity crisis,/* See also */
2016-07-28T22:22:57+00:00,731999696,724108603,0,2601:541:4305:C70:FDBE:4309:4BA5:A2C8,Liquidity crisis,change link
2009-01-17T23:57:46+00:00,264768056,263270842,0,Obersachsebot,Liquidity crisis,robot  Removing: [[es:Crisis de liquidez]]
2018-09-25T18:59:04+00:00,861192306,859368141,0,Sandstein,List of monetary reformers,Removing link(s): [[Wikipedia:Articles for deletion/Criticism of debt]] closed as delete ([[WP:XFDC|XFDcloser]])
2012-02-12T10:12:15+00:00,476423385,476214308,0,122.162.64.56,List of monetary reformers,"accurate labels, add kucinich"
2015-03-04T00:50:08+00:00,649770720,621146306,0,Jarble,List of people with surname Tully,added [[Category:Lists of people]] using [[WP:HC|HotCat]]
2019-06-04T04:02:32+00:00,900208321,891734002,0,Shenme,List of people with surname Tully,"/* top */[[WP:AWB/T|Typo fixing]], replaced: MacMillian → Macmillan"
2014-06-25T02:47:25+00:00,614308637,614307780,0,MKar,List of railway accidents and incidents in India,/* 2014 */ Wikilink
2016-12-12T07:52:54+00:00,754367452,752223848,0,Vinodpv27,List of railway accidents and incidents in India,/* 1920s */ Added the forgotten 1920 Oct crash of the Bangalore Mail
2010-08-26T03:38:56+00:00,381047781,381047426,0,Faizhaider,List of railway accidents and incidents in India,/* 2010 */ frmt
2021-04-27T20:19:21+00:00,1020209502,1019740137,0,85.220.7.96,List of railway accidents and incidents in India,/* 2017 */
2022-02-01T06:04:57+00:00,1069220903,1066273006,0,Extra999,List of railway accidents and incidents in India,/* 2020s */ unsourced
2015-05-25T18:44:02+00:00,663987067,662976522,0,Mohdsalman.air,List of railway accidents and incidents in India,
2010-02-18T12:03:48+00:00,344801261,344801212,0,Antiuser,List of railway accidents and incidents in India,Reverted 2 edits by [[Special:Contributions/124.125.172.90|124.125.172.90]] identified as [[WP:VAND|vandalism]] to last revision by [[User:125.21.183.72|125.21.183.72]]. ([[WP:TW|TW]])
2014-06-14T10:34:41+00:00,612875348,610191768,0,Shaurya619,List of railway accidents and incidents in India,/* 2013 */
2009-06-06T11:03:48+00:00,294760955,274686961,0,Hdamm,MBK Center,/* History */ Linkfix
2010-01-09T14:19:09+00:00,336800497,336800134,0,Boing! said Zebedee,MBK Center,/* Shops and services */ Floor 8 - need to find a source (this is a first hand observation)
2009-03-03T14:15:46+00:00,274686961,270539767,0,Nandu,MBK Center,/* History */
2010-08-13T06:04:35+00:00,378667261,365978653,0,174.98.116.160,MBK Center,
2011-03-24T22:28:16+00:00,420567551,405867335,0,Robbot,MBK Center,robot Removing: [[wuu:MBK Center]] Modifying: [[nl:MBK Center]]
2016-07-31T17:13:47+00:00,732387748,729696513,0,Abrahamic Faiths,MBK Center,/* External links */  {{Shopping malls in Thailand}}
2017-07-28T08:59:26+00:00,792731776,792731316,0,Flix11,MBK Center,/* Location */ add info
2016-12-10T18:09:17+00:00,754069789,732387748,0,Matthewmayer,MBK Center,fix link
2022-09-02T12:45:01+00:00,1108083194,1082152378,0,PointlessUsername,MBK Center,date info
2011-06-28T08:15:04+00:00,436639502,425451328,0,DonEd,MDA (TV series),/* External links */
2006-04-17T14:11:48+00:00,48844336,43007378,0,Ben King,MDA (TV series),moved [[MDA (television)]] to [[MDA (TV series)]]: For consistency of formatting and ease of navigation
2009-10-01T20:57:39+00:00,317350179,312413130,0,Raniero Supremo,MDA (TV series),/* Guest cast */
2010-01-27T17:32:37+00:00,340365160,337455200,0,SMC,MDA (TV series),"/* Synopsis */ included instead of "":"""
2016-01-10T11:09:47+00:00,699122062,686318955,0,Itisonly4me,MDA (TV series),/* Guest cast */ added Robert Taylor
2011-01-28T15:05:19+00:00,410570630,393262348,0,JustAGal,MDA (TV series),disambig
2014-11-08T23:58:29+00:00,633024914,598116953,0,Gwafton,MS Silja Serenade,Shipbuilding company and yard: [[Masa-Yards]] [[Perno shipyard|Turku New Shipyard]].
2006-01-28T12:27:09+00:00,37072649,36409091,0,84.137.29.245,MS Silja Serenade,"/* External links */ This weblink is fine for ""GTS Finnjet"" but has no relevance concerning this article"
2010-02-03T23:31:46+00:00,341780773,341780660,0,KaMeWa2,MS Silja Serenade,/* Decks */
2022-01-15T11:53:34+00:00,1065808053,1035654789,0,Sladen,MS Silja Serenade,/* top */ Fix {{MS|Baltic Queen}} formatting
2008-11-24T23:41:00+00:00,253892808,245223923,0,Haus,MS Silja Serenade,cleanup & [[WP:AWB/T|typo fixing]]  using [[Project:AutoWikiBrowser|AWB]]
2014-03-04T15:30:11+00:00,598116953,598116919,0,62.106.4.182,MS Silja Serenade,/* History */
2013-04-18T08:46:29+00:00,550946423,540618163,0,Tupsumato,MS Silja Serenade,
2016-11-02T13:55:38+00:00,747456329,686058748,0,Telempe,MS Silja Serenade,adding detail
2015-11-13T02:51:46+00:00,690399077,690320680,0,2001:14BA:1F4:B100:A089:B02D:17CF:E097,Mainstream economics,Undid revision 690320680 by [[Special:Contributions/130.15.34.36|130.15.34.36]] ([[User talk:130.15.34.36|talk]])
2010-11-06T07:17:17+00:00,395128068,394995165,0,Vanakaris,Mainstream economics,"article is about the ""anglosphere"" anyways"
2021-11-16T19:49:44+00:00,1055599845,1055599007,0,Pauloroboto,Mainstream economics,
2009-10-13T22:01:33+00:00,319704136,319704031,0,82.19.55.237,Mainstream economics,/* Assumptions */
2020-11-10T03:22:58+00:00,987938141,978797633,0,The Editor's Apprentice,Mainstream economics,/* top */ Corrected the placement of a period with respect to a reference
2006-12-12T01:59:52+00:00,93717631,91842393,0,68.84.216.148,Mainstream economics,favor spelt wrong
2016-10-06T21:01:30+00:00,742951630,742951590,0,KGirlTrucker81,Mainstream economics,Reverted 1 edit by [[Special:Contributions/2401:2500:102:3024:153:126:177:49|2401:2500:102:3024:153:126:177:49]] ([[User talk:2401:2500:102:3024:153:126:177:49|talk]]) to last revision by Der Golem. ([[WP:TW|TW]])
2007-10-23T21:05:08+00:00,166603554,164896284,0,MaCRoEco,Mainstream economics,what is the link with [[Neoclassical synthesis]] ...
2008-06-12T02:06:13+00:00,218767168,218766666,0,BrendelSignature,Mainstream economics,c/e
2019-06-04T21:38:55+00:00,900321543,893338049,0,Shenme,Mainstream economics,"""McMillan"" -> ""MacMillan"""
2008-10-14T12:30:58+00:00,245208127,245207601,0,Flewis,Mainstream economics,Reverted edits by [[Special:Contributions/66.114.11.160|66.114.11.160]] to last version by Chrisahn ([[WP:HG|HG]])
2008-11-23T20:35:00+00:00,253652537,251372004,0,129.215.5.166,Mainstream economics,
2016-06-03T03:49:33+00:00,723450523,717053640,0,Dcirovic,Mainstream economics,/* Methods */clean up using [[Project:AWB|AWB]]
2008-12-23T00:54:45+00:00,259630826,248879790,0,213.84.171.175,Malinvestment,
2013-07-18T17:39:27+00:00,564817904,551599907,0,71.0.82.131,Malinvestment,/* See also */
2017-01-19T15:01:10+00:00,760866884,755168993,0,Kku,Malinvestment,link [[overconsumption]] using [[:en:User:Edward/Find link|Find link]]
2014-08-01T17:16:54+00:00,619446661,619446264,0,Bhny,Malinvestment,readability
2011-10-28T06:22:14+00:00,457777442,453001253,0,Jaredbrownsound,Malone,
2013-03-24T21:35:58+00:00,546802889,507638934,0,68.114.221.68,Malone,/* Fictional characters */
2021-05-07T14:31:04+00:00,1021938582,1021938488,0,Finnigami,Malone,
2022-07-02T18:02:25+00:00,1096157864,1086225449,0,Kaiser matias,Malone,Update link
2008-05-24T06:06:09+00:00,214579515,214556785,0,SEWilco,Malone,Reverted 1 edit by [[Special:Contributions/24.231.135.109|24.231.135.109]] identified as [[WP:VAND|vandalism]] to last revision by [[User:JamesMLane|JamesMLane]]. ([[WP:TW|TW]])
2009-02-13T06:32:33+00:00,270390205,268204569,0,Zonly,Malone,/* People */
2011-05-08T18:17:46+00:00,428114857,422764739,0,Penale52,Malone,/* People with the surname */
2011-07-17T21:21:02+00:00,440010621,428114857,0,C.Kent87,Malone,/* Fictional characters */ Growing Pains character
2010-01-03T16:16:12+00:00,335649248,329969254,0,Starkmania,Malone,
2020-06-05T00:18:54+00:00,960800669,951291653,0,Azarqa,Mamdouh Habib,/* Life */ made text more readable
2007-05-23T03:45:14+00:00,132853223,132241677,0,Kulim~enwiki,Mamdouh Habib,
2007-06-14T11:42:25+00:00,138111794,138111486,0,124.176.47.132,Mamdouh Habib,
2022-01-17T01:10:07+00:00,1066144320,1058092828,0,Lettler,Mamdouh Habib,/* top */lead
2014-07-25T21:40:19+00:00,618468730,613191622,0,Cyfraw,Mamdouh Habib,
2012-05-06T07:51:34+00:00,490946937,481812683,0,101.161.144.135,Mamdouh Habib,
2021-08-07T09:20:07+00:00,1037561145,1027679519,0,115.96.107.190,Maqbool,
2021-02-16T12:48:11+00:00,1007094777,1001098135,0,GreenReaper,Mamdouh Habib,Fix reference URL
2005-12-19T00:00:25+00:00,31903969,30440969,0,D6,Maqbool,fmt
2010-09-26T20:21:25+00:00,387183990,386916844,0,EdoBot,Maqbool,"robot Removing: [[hi:मक़्बूल]], [[ur:مقبُول]]"
2022-04-23T23:23:08+00:00,1084344876,1082865909,0,Qwef1234,Maqbool,[[WP:OVERLINK]]
2009-06-22T13:08:14+00:00,297908756,291911157,0,Aung Phyoe,Maqbool,/* External links */
2011-04-08T11:22:17+00:00,423004336,422986007,0,Managerarc,Maqbool,rm scripts from infobox
2022-01-22T04:46:32+00:00,1067178939,1067030369,0,Amulrajsingh,Maqbool,Added content
2007-07-24T05:44:14+00:00,146702351,146702183,0,124.43.164.216,"Matara, Sri Lanka",/* Schools */
2011-11-27T16:08:21+00:00,462749866,462482341,0,124.43.77.140,"Matara, Sri Lanka",
2009-11-08T17:52:06+00:00,324677775,323242574,0,24.78.159.224,"Matara, Sri Lanka",
2010-02-24T03:22:52+00:00,346020848,345893701,0,Chanakal,"Matara, Sri Lanka",[[Help:Reverting|Reverted]] edits by [[Special:Contributions/05theben|05theben]] ([[User talk:05theben|talk]]) to last version by Chamal N
2016-09-12T13:47:21+00:00,739046463,738840730,0,L Manju,"Matara, Sri Lanka",Reverted 1 edit by [[Special:Contributions/112.134.165.94|112.134.165.94]] ([[User talk:112.134.165.94|talk]]) to last revision by L Manju. ([[WP:TW|TW]])
2015-01-06T19:14:41+00:00,641282064,617864177,0,Forbes72,Meltdown (Woods book),create more specific category
2016-02-02T22:01:32+00:00,702999801,641282064,0,Wargo,Meltdown (Woods book),Updated link (bot)
2011-01-15T02:30:49+00:00,407951480,403385615,0,Simon Villeneuve,Meltdown (Woods book),french connection
2018-01-17T09:27:53+00:00,820909784,790914192,0,Widefox,Meltdown (Woods book),Added {{[[Template:more footnotes|more footnotes]]}} tag to article ([[WP:TW|TW]])
2021-04-19T09:20:56+00:00,1018682164,1018682090,0,Wikisaurus,Methuselah Mouse Prize,[[WP:AES|←]]Redirected page to [[Methuselah Foundation#Methuselah Mouse Prize]]
2015-05-03T14:53:29+00:00,660595193,660179613,0,Gadget850,Michael Bartosh,"/* References */cleanup class ""references-small"" (class was deleted 21 Dec 2010) using [[Project:AWB|AWB]]"
2005-08-15T13:41:29+00:00,21063114,18712462,0,Darranc,Michael O'Riordan,cat's
2007-07-16T23:34:58+00:00,145111947,121046598,0,159.134.112.159,Michael O'Riordan,/* Political activism */
2020-06-19T17:42:28+00:00,963413958,963408546,0,Konli17,Michael O'Riordan,"/* Early life */ Covered below, tidy"
2007-07-18T21:19:41+00:00,145523560,145111947,0,Roger Davies,Michael O'Riordan,/* External links */ add cat
2019-05-31T13:59:22+00:00,899660430,885108743,0,CeltBrowne,Michael O'Riordan,
2014-12-14T12:15:37+00:00,638039120,617759306,0,82.26.140.125,Michael O'Riordan,/* Political activism */
2014-01-23T00:13:09+00:00,591950348,584662613,0,Fadesga,Michael Rowbotham,/* References */
2012-06-23T21:46:03+00:00,499044891,499010288,0,Paul Erik,Michael Rowbotham,Undid revision 499010288 by [[Special:Contributions/John Shandy`|John Shandy`]] ([[User talk:John Shandy`|talk]]) Not a copyvio; Amazon.com is using the Wikipedia article
2007-09-03T00:13:17+00:00,155311225,155310471,0,68.198.59.5,Milton Friedman,/* Federal service */
2007-01-05T14:31:14+00:00,98646031,98579576,0,SilverStar,Milton Friedman,mv persondata to btm
2021-05-25T15:39:00+00:00,1025073261,1024710289,0,BasedMises,Milton Friedman,
2016-11-23T20:19:43+00:00,751167584,751167216,0,136.206.5.16,Milton Friedman,
2008-08-15T00:14:05+00:00,232005428,231366446,0,John,Milton Friedman,per [[Wikipedia:Templates for deletion/Log/2008 August 6]]
2013-05-28T09:46:51+00:00,557146713,547358947,0,108.182.44.185,Minsky moment,Removed redundant  sentence.
2011-08-28T23:22:09+00:00,447216154,447214669,0,198.228.198.62,Minsky moment,/* Notes */
2020-09-04T17:28:34+00:00,976732755,949426617,0,Fant123,Minsky moment,/* Description */
2008-12-25T00:13:12+00:00,259983124,251229518,0,LaaknorBot,Minsky moment,robot  Adding: [[pl:Moment Minsky'ego]]
2008-09-27T22:35:51+00:00,241414063,240889287,0,Helvetius,Minsky moment,
2009-06-16T00:01:31+00:00,296652744,296510160,0,SlubGlub,Minsky moment,References -> Further reading per [[WP:LAYOUT]]
2010-05-10T08:16:46+00:00,361234970,340837952,0,Espoo,Minsky moment,[[Wikipedia:Manual_of_Style#Clarity]]
2013-03-06T18:31:40+00:00,542410927,532950947,0,134.113.238.2,Minsky moment,/* Further reading */ there was a link to a SEO spamblog that had 0% to do with Minsky and in fact did not even mention his name
2011-06-05T03:07:21+00:00,432619113,432619053,0,Now wiki,Minsky moment,edit
2014-01-15T13:55:55+00:00,590816449,590759752,0,Tonyfaull,Minsky moment,fixed wikilink to [[Hedge (finance)]]
2017-12-29T23:29:10+00:00,817685486,811767839,0,Healing toolbox,Minsky moment,more clarity on the two kinds of investment occurring during prosperous periods.
2020-02-18T06:43:16+00:00,941381771,941381670,0,JanHenk3691,Monetary inflation,/* Inflation in IFRS */ Removed it should be in price inflation
2015-05-17T18:57:00+00:00,662805828,661676806,0,64.121.70.106,Monetary inflation,Minor italic fixes.
2019-01-07T11:53:30+00:00,877234914,864663874,0,2A02:1810:9C29:9B00:9D46:7F0D:64EB:63D6,Monetary inflation,/* Quantity theory */ added link
2009-07-26T12:03:57+00:00,304281826,303320840,0,FacingTheAbyss,Monetary inflation,
2013-02-18T19:28:29+00:00,538918660,524925796,0,Tamzin,Monetary inflation,removing interlanguage links copied to Wikidata; see [[WP:WDATA]] for more information - using [[Project:AWB|AWB]]
2019-09-17T02:43:38+00:00,916112552,891119448,0,2001:8003:4F7B:FC00:34D4:8E33:D0A8:24F7,Monetary inflation,
2009-11-24T14:02:34+00:00,327665944,320263390,0,91.199.122.25,Monetary inflation,
2018-03-23T14:53:07+00:00,832049941,823946672,0,Sir Tony Britton,Monetary inflation,
2008-07-31T08:27:30+00:00,228977666,227414925,0,LinkinPark,Monetary reform,
2010-01-18T04:16:13+00:00,338494957,335161111,0,Whoelius,Monetary reform,Different FROM.  Different FROM.  Remember that.  Different THAN doesn't make any sense whatsoever.
2005-11-27T23:31:17+00:00,29425295,20494399,0,213.3.48.161,Monetary reform,
2006-02-18T23:18:32+00:00,40205376,39331453,0,Paul Nollen,Monetary reform,/* See also */
2009-04-19T12:14:54+00:00,284793970,284793505,0,122.104.49.55,Monetary reform,"/* Fractional Reserve Banking */ MR actually defines it as a form of embezzlement, exposed during bank runs"
2011-11-20T17:27:45+00:00,461622304,460872868,0,122.162.146.196,Monetary reform,/* See also */
2008-01-17T06:50:07+00:00,184925864,183543956,0,CaliforniaAliBaba,Monetary reform,{{Unsourced|date=January 2008}}
2008-06-08T17:00:34+00:00,217983803,217845670,0,78.147.175.135,Monetary reform,
2019-01-01T09:47:14+00:00,876276426,876276015,0,Sjö,Monetary reform,Undid revision 876276015 by [[Special:Contributions/117.230.37.214|117.230.37.214]] ([[User talk:117.230.37.214|talk]]) [[Help:Reverting|Reverting]] unexplained content removal
2008-09-17T09:10:11+00:00,238986856,238061547,0,217.86.163.88,Monetary reform,"/* Examples of government issued debt-free money */  Changed the reference, since it was down"
2005-08-07T20:16:25+00:00,20494399,19584818,0,69.235.87.217,Monetary reform,Adds an important all-encompassing reform of monetary systems of production
2009-10-13T08:43:14+00:00,319589312,316846939,0,87.113.12.250,Monetary reform,/* External links */
2012-06-23T20:38:39+00:00,499035694,498645989,0,77.103.144.222,Monetary reform,
2019-08-21T09:32:36+00:00,911812771,911812627,0,220.233.199.139,Monetary reform,/* Alternative money systems */
2006-12-24T14:26:30+00:00,96274448,87478076,0,Olivierchaussavoine,Monetary reform,
2013-05-11T21:58:05+00:00,554651846,553141683,0,Rreagan007,Money,/* Digital money */
2019-02-28T16:50:30+00:00,885532074,880290537,0,UnitedStatesian,Money,"Importing Wikidata [[Wikipedia:Short description|short description]]: ""Object or record accepted as payment"" ([[User:Galobtter/Shortdesc helper|Shortdesc helper]])"
2013-06-24T10:18:34+00:00,561338695,561321432,0,JesseRafe,Money,/* History */ ordering
2019-01-01T20:47:51+00:00,876349955,876349750,0,Mavis Damea,Money,link
2005-10-06T10:36:08+00:00,24887026,24852343,0,DocendoDiscimus,Money,remove spam by 62.1.225.178 and revert to [[Thobius]]
2010-01-16T22:59:24+00:00,338259704,337537476,0,82.243.103.191,Money as Debt,french
2011-09-23T13:27:57+00:00,452022286,448579355,0,Chrisahn,Money as Debt,"Undid revision 448542238 by [[Special:Contributions/117.18.229.15|117.18.229.15]] ([[User talk:117.18.229.15|talk]]) IP made significant changes, not just ""Tidy"""
2011-04-06T17:36:31+00:00,422724629,421824639,0,Deflective,Monmouth,IPAc-en conversion
2005-10-02T22:55:19+00:00,24599387,22414974,0,81.179.126.211,Monmouth,/* Famous people */
2012-07-22T13:06:06+00:00,503584684,501836009,0,JackieBot,Monmouth,r2.7.2) (Robot: Modifying [[he:מונמות']]
2008-03-04T16:10:08+00:00,195819808,195819741,0,Jossi,Monmouth,Reverted edits by [[Special:Contributions/Sniperkill26|Sniperkill26]] ([[User talk:Sniperkill26|talk]]) to last version by Justin Eiler
2018-09-05T20:38:16+00:00,858224672,856676004,0,Mattcymru2,Monmouth,
2011-04-21T17:54:32+00:00,425198962,422724629,0,FruitMonkey,Monmouth,"Moving picture away from the contents list, and dab John Williams."
2020-09-15T12:10:23+00:00,978522576,978494257,0,Gareth Griffith-Jones,Monmouth,Reverted edits by [[Special:Contribs/2A00:23C6:3112:8400:313A:65D4:7C8F:C3BC|2A00:23C6:3112:8400:313A:65D4:7C8F:C3BC]] ([[User talk:2A00:23C6:3112:8400:313A:65D4:7C8F:C3BC|talk]]) to last version by KJP1
2009-07-19T04:17:19+00:00,302887310,302499750,0,JamesAM,Monmouth,/* Post medieval times */ Repairing links to disambiguation pages - [[Wikipedia:Disambiguation pages with links|You can help!]]
2016-05-02T20:34:04+00:00,718317899,718317850,0,173.90.61.203,Moral hazard,/* Example */
2020-12-18T17:02:05+00:00,994994608,991824203,0,Flagrant hysterical curious,Moral hazard,"Added wl for [[Principal (commercial law)]] to instance of ""principal"""
2012-05-03T19:04:15+00:00,490512437,488338574,0,Matttoothman,Moral hazard,/* Finance */ removed }}
2020-10-12T04:55:18+00:00,983087217,981488853,0,Heroeswithmetaphors,Moral hazard,/* History */link
2005-10-25T23:00:49+00:00,26480700,25177944,0,Mr magoo,Moral hazard,removed story-esque element
2009-03-18T03:39:52+00:00,278028743,277987272,0,HFM,Moral hazard,
2009-01-01T18:20:18+00:00,261294537,261294530,0,SoxBot III,Moral hazard,Reverting possible test edit(s) by [[Special:Contributions/117.194.195.83|117.194.195.83]] to older version. [[User:X!/False Positive?|Was this a mistake?]] (BOT EDIT)
2009-08-26T22:56:21+00:00,310257470,309150472,0,198.238.190.120,Moral hazard,/* In management */
2018-03-27T19:28:26+00:00,832743737,824011622,0,Advsele,Moral hazard,Link to an open access article that tests moral hazard theory.
2013-03-15T16:12:22+00:00,544402664,543681456,0,Alazaris,Moral hazard,
2022-08-03T16:23:55+00:00,1102149467,1100233751,0,Oneequalsequalsone,Moral hazard,"add link for ""too big to fail"""
2015-03-25T09:44:45+00:00,653437341,653437293,0,205.156.88.233,Moral hazard,
2020-02-29T06:58:47+00:00,943163269,943163106,0,Aely-Aronoff,Moral hazard,Fixed broken citation
2007-05-02T00:20:58+00:00,127562198,127385361,0,82.152.99.170,Moral hazard,/* Deregulation */
2017-07-04T00:13:41+00:00,788871483,782823087,0,GoingBatty,Moral hazard,Disambiguated: [[Frontline]] → [[Frontline (U.S. TV series)]]
2019-02-19T20:52:35+00:00,884148344,882813479,0,208.114.63.4,Moral hazard,/* Finance */
2019-04-16T21:36:13+00:00,892787653,892787243,0,Everedux,Moral hazard,Reverted 1 edit by [[Special:Contributions/Clinteastwood222|Clinteastwood222]] ([[User talk:Clinteastwood222|talk]]) to last revision by The Editor's Apprentice ([[WP:TW|TW]])
2007-06-19T13:31:35+00:00,139196765,138917247,0,Dinomite,Moral hazard,"/* Moral Hazard in Insurance */  took out uneeded heading, deductible statment"
2014-06-22T20:36:11+00:00,613999562,612941567,0,162.227.85.220,Moral hazard,
2013-12-21T18:47:57+00:00,587126534,587090777,0,MilesMoney,Moral hazard,revert unexplained removal
2008-12-31T21:43:11+00:00,261165957,260650592,0,BryanMakesLists,Moral hazard,"formatting, punctuation, copyedit"
2009-09-19T14:14:35+00:00,314911142,314911026,0,96.231.145.227,Moral hazard,/* In finance */
2021-12-22T20:05:36+00:00,1061616564,1055360801,0,179.26.41.216,Moral hazard,
2012-02-20T20:54:56+00:00,477948328,477948220,0,Mdiaz127,Moral hazard,"added references, deleted disclaimer stating additional citation is needed"
2006-12-02T05:32:50+00:00,91541485,90562283,0,Camiolo,Moral hazard,/* Lending and Debt */
2011-10-30T15:03:25+00:00,458134187,457430942,0,94.36.101.231,Moral hazard,/* External links */
2020-02-21T05:10:29+00:00,941875264,941873546,0,94.21.38.90,Moral hazard,/* Finance */ Remove [[WP:DUPLINK]]s to [[subprime mortgage crisis]]
2012-06-10T02:28:14+00:00,496838456,494687120,0,Vertium,Moral hazard,Removed tag regarding unbalanced tone.  No information on Talk page as to why it appears unbalanced.
2016-12-15T11:36:47+00:00,754951168,754951102,0,Hume42,Mr. Tumnus,Reverted 1 edit by [[Special:Contributions/101.161.56.54|101.161.56.54]] ([[User talk:101.161.56.54|talk]]): Maybe the wrong name. ([[WP:TW|TW]])
2010-04-16T01:02:49+00:00,356288089,356222516,0,Lsommerer,Mr. Tumnus,Reverted 1 edit by [[Special:Contributions/92.17.229.192|92.17.229.192]] identified as [[WP:VAND|vandalism]] to last revision by [[User:Lsommerer|Lsommerer]]. ([[WP:TW|TW]])
2011-02-26T12:53:38+00:00,416027245,411876243,0,Andycjp,Mr. Tumnus,/* Spoofs */ summ
2009-08-15T03:31:43+00:00,308063765,308011135,0,Lsommerer,Mr. Tumnus,I think Tom Walsh is vandalism.
2014-06-05T20:58:00+00:00,611733809,604901210,0,2.217.75.239,Mr. Tumnus,changed person to creature as he is half goat
2017-03-09T09:47:53+00:00,769406614,769406439,0,ProprioMe OW,Mr. Tumnus,Reverted 2 edits by [[Special:Contributions/62.116.201.18|62.116.201.18]] ([[User talk:62.116.201.18|talk]]) to last revision by Mortee. ([[WP:TW|TW]])
2007-09-13T14:17:21+00:00,157614596,157610140,0,Captain Phoebus,Mr. Tumnus,
2008-07-22T02:32:48+00:00,227126310,226170139,0,61.28.187.162,Mr. Tumnus,
2019-08-30T03:45:04+00:00,913135874,913134543,0,Doniago,Mr. Tumnus,[[Help:Reverting|Reverted]] edits by [[Special:Contributions/75.174.0.15|75.174.0.15]] ([[User talk:75.174.0.15|talk]]) to last version by Elphion rvv
2012-05-23T13:21:50+00:00,493987704,493986398,0,Doniago,Mr. Tumnus,[[Help:Reverting|Reverted]] edits by [[Special:Contributions/195.16.145.110|195.16.145.110]] ([[User talk:195.16.145.110|talk]]) to last version by Doniago rvv
2021-06-07T02:31:47+00:00,1027283746,1027216900,0,Neighborhood Review,Murray Rothbard,/* Works */
2016-02-28T06:21:49+00:00,707331433,707330953,0,BilCat,Murray Rothbard,Reverted 1 edit by [[Special:Contributions/2604:2000:DE9C:3E00:4C8C:2FAA:E436:343C|2604:2000:DE9C:3E00:4C8C:2FAA:E436:343C]] ([[User talk:2604:2000:DE9C:3E00:4C8C:2FAA:E436:343C|talk]]) to last revision by Rtuhj. ([[WP:TW|TW]])
2022-07-29T17:07:35+00:00,1101168159,1099267219,0,2603:80A0:1140:F9:C1C:D804:9B4E:CC87,Murray Rothbard,"/* Polemics against mainstream economics */I was trying to find this quote, but it does not appear in volume 2 (as originally cited). It's from volume 1 and the page numbers match the version available online here https://mises.org/library/austrian-perspective-history-economic-thought"
2015-01-28T23:44:13+00:00,644625148,643589940,0,DocYako,Murray Rothbard,
2015-09-24T16:31:47+00:00,682579736,682577591,0,Rjensen,Murray Rothbard,Reverted edits by [[Special:Contribs/108.52.57.150|108.52.57.150]] ([[User talk:108.52.57.150|talk]]) to last version by 50.244.52.121
2017-06-29T16:59:12+00:00,788130386,788122465,0,ResidentofPlanetEarth,Murray Rothbard,Undid revision 788122465 by [[Special:Contributions/ResidentofPlanetEarth|ResidentofPlanetEarth]] ([[User talk:ResidentofPlanetEarth|talk]])
2011-03-28T07:10:13+00:00,421107558,421107139,0,173.20.226.163,Murray Rothbard,/* Life and work */
2010-12-12T04:28:06+00:00,401897762,401897309,0,216.188.230.142,Murray Rothbard,
2017-07-04T20:45:59+00:00,789017434,789016549,0,PowerKey,Murray Rothbard,
2014-04-05T22:40:42+00:00,602928268,602503185,0,Ninmacer20,Murray Rothbard,"/* Marriage, employment and activism */ Added wiki-link."
2007-07-02T13:47:12+00:00,142008129,142007489,0,Jacob Haller,Murray Rothbard,/* Anarcho-capitalism */
2021-09-24T06:05:07+00:00,1046149494,1045750671,0,TheStatesmanMan,Murray Rothbard,/* top */
2005-11-23T23:55:24+00:00,29095336,29087221,0,Matthew238,Murray Rothbard,"removed ""great"", POV?"
2020-01-02T18:51:44+00:00,933731390,933730361,0,JmA,Murray Rothbard,"/* Austrian economics */ Skousen teaches at Chapman, Grantham only has a Business School named after him."
2015-06-24T04:16:34+00:00,668417964,668417842,0,69.243.88.99,Murray Rothbard,
2013-04-17T18:36:05+00:00,550851471,549313424,0,70.31.172.11,Murray Rothbard,
2021-03-21T15:48:10+00:00,1013428614,1013305599,0,130.209.119.45,NF-κB,"Whoever wrote the short paragraph on the role of NF-KB in cytotoxicity misunderstood the wording in the abstract of the paper they referenced. NF-KB controlls the activity of JNK, causing its suppression, it does not activate JNK"
2013-02-27T20:27:10+00:00,541034710,539508398,0,Michipedian,Murray Rothbard,
2013-03-26T18:46:00+00:00,547107711,545118252,0,Wavelength,NF-κB,"/* Structure */ removing 1 [[hyphen]]: —> ""tightly regulated""—[[WP:HYPHEN]], sub-subsection 3, point 4"
2009-10-26T18:38:50+00:00,322182562,322173134,0,Boghog,NF-κB,/* The non-canonical NF-κB signaling */ merged duplicate citation; + wiki links
2019-11-18T14:22:35+00:00,926754956,926739212,0,Boghog,NF-κB,"Reverted [[WP:AGF|good faith]] edits by CancerScientist: Per [[WP:MEDRS]], secondary sources (review articles) needed to support medical claims; Frontiers is not a reliable source (inadequate peer review) ([[WP:TW|TW]])"
2021-01-31T14:18:26+00:00,1003956801,997891928,0,2001:861:4003:72C0:7DB8:116B:8B28:44D2,NF-κB,
2018-11-23T17:13:21+00:00,870270317,788989141,0,MB,Nan Witcomb,"fix undefined infobox param, removed: | debut_works = The Thoughts of Nanushka, 
 | influences  = , 
 | influenced  ="
2008-09-21T11:28:42+00:00,239980510,237477531,0,121.127.220.184,National Gallery of Australia,/* See also */
2022-02-07T07:50:07+00:00,1070396893,1068825721,0,Laterthanyouthink,National Gallery of Australia,/* Women Hold Up Half The Sky */ add details
2015-07-05T14:57:11+00:00,670058760,670058212,0,121.44.230.143,National Gallery of Australia,/* Ron Radford */ replaced single for double quotation marks; italicised Turrell's work's title
2013-11-03T18:40:07+00:00,580038127,580017363,0,JNW,National Gallery of Australia,"rv, per [[WP:MOS]]Undid revision 580017363 by [[Special:Contributions/MahyAttar|MahyAttar]] ([[User talk:MahyAttar|talk]])"
2012-07-05T10:48:04+00:00,500780739,499093486,0,Alirezabot,National Gallery of Australia,r2.7.2) (Robot: Adding [[mzn:استرالیا ملی نگارخنه]]
2022-06-20T03:22:25+00:00,1093991022,1093990449,0,Laterthanyouthink,National Gallery of Australia,"/* Exhibitions and initiatives */ oops, remove section wrongly placed"
2008-05-14T14:59:55+00:00,212362592,212362418,0,70.180.216.179,"National Library, Singapore",/* External links */
2007-10-26T23:50:33+00:00,167321156,163241145,0,MalafayaBot,"National Library, Singapore",robot  Adding: [[zh:新加坡國家圖書館]]
2006-10-17T10:14:57+00:00,81969862,77539018,0,218.186.9.3,"National Library, Singapore",/* External links */
2008-01-31T01:43:40+00:00,188055291,188055111,0,203.78.9.165,"National Library, Singapore",
2008-04-22T23:08:07+00:00,207476594,181504112,0,Frank,Neo-Keynesian economics,Capitalist: Remove link(s) to disambiguation page - [[Wikipedia:Disambiguation_pages_with_links|You can help!]]
2013-07-16T18:44:52+00:00,564545654,563900539,0,95.93.17.223,Neo-Keynesian economics,classic to neoclassic
2006-10-31T15:03:49+00:00,84843010,80072628,0,Duja,New Christs,/* Singles */ - pre-dab detritus
2020-02-10T05:50:59+00:00,940045273,914599819,0,106.201.84.159,New Christs,
2012-08-19T16:41:11+00:00,508151098,505114591,0,MrX,New Christs,"/* 1987–1989, 1991 */[[WP:MOS]] non-breaking space, replaced: No.  → No.&nbsp; using [[Project:AWB|AWB]]"
2013-06-19T22:52:22+00:00,560673672,560673595,0,Nathan Johnson,Nickel and Dimed,/* Cover controversy */ even more
2014-05-06T14:12:02+00:00,607330744,605931301,0,Frecklefoot,Nickel and Dimed,/* Adaptations */ just surname
2017-09-09T09:38:55+00:00,799702068,733029086,0,Nedhartley,Nickel and Dimed,c/e
2013-04-26T00:28:22+00:00,552200473,549893107,0,Metallurgist,Nickel and Dimed,/* See also */ How is RfR related?
2017-01-26T16:00:52+00:00,762089396,761265325,0,Bovineboy2008,Night of the Living Dead,fix link
2013-02-12T21:53:39+00:00,537940497,532479029,0,Vegaswikian,"National Library, Singapore",/* External links */ More specific category
2016-01-15T10:20:36+00:00,699937401,697529058,0,Niceguyedc,Night of the Living Dead,v1.38 - Repaired 1 link to disambiguation page - [[WP:DPL|(You can help)]] - [[Dawn of the Dead]]
2007-12-25T17:57:29+00:00,180127606,179715172,0,61.74.190.245,Night of the Living Dead,/* Influence */
2012-01-12T12:25:07+00:00,470957589,470955540,0,Ryanasaurus007,Night of the Living Dead,You must be thinking 1990.
2013-09-08T13:03:19+00:00,572051642,572027290,0,88.115.218.113,Night of the Living Dead,/* Plot summary */ clarified the ambigous nature of the ending.
2020-10-26T10:57:58+00:00,985510122,984546931,0,Samuel L. Jackson's Nick Fury,Night of the Living Dead,
2008-11-28T21:03:24+00:00,254665787,254581558,0,76.241.79.120,Night of the Living Dead,
2007-02-21T01:39:49+00:00,109706065,109443602,0,TitanicTarn,Night of the Living Dead,/* Revisions */
2021-02-24T16:53:12+00:00,1008703653,1008684979,0,BeŻet,Non-aggression principle,Undid revision 1008684979 by [[Special:Contributions/AP295|AP295]] ([[User talk:AP295|talk]]) User forcing their version without achieving consensus
2015-07-30T18:41:08+00:00,673823714,670406638,0,Liberation25,Non-aggression principle,
2013-04-12T12:55:37+00:00,549995201,548427907,0,96.57.238.82,Non-aggression principle,
2007-09-05T03:40:02+00:00,155769066,145459886,0,Rename user vk7wbxku6o2fxupa,Non-aggression principle,"/* See also */ Not a pertinent link, has nothing to do with subject of this article"
2018-09-04T20:33:08+00:00,858065210,856537288,0,Light Millennia,Non-aggression principle,
2006-10-31T23:36:12+00:00,84935320,78817096,0,Lectert,Non-aggression principle,+zh
2018-01-14T01:39:26+00:00,820286550,820096185,0,JHP,Non-aggression principle,Clarifying definition of the NAP.
2012-05-14T00:10:25+00:00,492440503,492440027,0,98.28.166.53,Non-aggression principle,/* Intellectual property rights */
2011-01-24T08:44:32+00:00,409725876,409148617,0,123.211.120.5,Normie Rowe,/* Albums */
2008-01-26T17:28:01+00:00,187058721,187054192,0,PhilLiberty,Non-aggression principle,"/* Historical Background */ Pufendorf, Locke formulations; reordered examples more chronologically"
2013-07-04T10:55:45+00:00,562817532,562817512,0,Yintan,Normie Rowe,Reverted edits by [[Special:Contributions/58.105.112.46|58.105.112.46]] ([[User talk:58.105.112.46|talk]]): addition of [[WP:CITE|unsourced]] content ([[WP:HG|HG]])
2014-08-21T03:18:28+00:00,622144461,609897066,0,Von101,Normie Rowe,
2008-01-28T19:18:11+00:00,187523977,186664570,0,195.229.236.211,Normie Rowe,
2017-08-20T11:15:31+00:00,796371328,796254745,0,AusChartMan,Normie Rowe,/* Discography */ Linked first two singles
2006-06-03T22:32:01+00:00,56730097,56730028,0,Asa01,Normie Rowe,spelling-typo
2018-03-08T23:51:24+00:00,829493859,829492686,0,110.144.70.84,Normie Rowe,/* Albums */
2009-03-18T09:51:33+00:00,278068167,261242645,0,Deaflympic,Normie Rowe,/* Post-success: 1972–2000 */
2006-08-09T12:38:22+00:00,68597772,68203308,0,138.38.32.84,Overclocking,/* General disadvantages */
2007-05-27T18:56:55+00:00,133904261,133366132,0,89.253.65.36,Overclocking,/* Overclocking/Benchmark databases */
2011-11-30T01:22:58+00:00,463209435,462558588,0,74.160.35.159,Overclocking,
2017-08-31T22:29:43+00:00,798266584,798266317,0,134.223.230.154,Overclocking,/* Components */
2019-06-23T16:47:13+00:00,903109568,901604161,0,2601:703:200:8F7:88C0:6FD2:31CB:4582,Overclocking,/* General */
2016-05-11T19:15:58+00:00,719782398,719616130,0,Wingedsubmariner,Overclocking,/* Alternatives */ Removing uncited statement
2015-12-02T16:18:43+00:00,693441572,693226956,0,69.64.144.72,Paul Krugman,wikilink for CUNY
2008-08-01T13:45:45+00:00,229224392,228751524,0,70.109.223.188,Paul Krugman,rm cat
2009-08-06T16:25:28+00:00,306427165,306399906,0,Skipsievert,Paul Krugman,Return more well rounded information. Not really negative either just overview. [[WP:UNDO|Undid]] revision 306399906 by [[Special:Contributions/Rd232|Rd232]] ([[User talk:Rd232|talk]])
2007-10-09T03:44:43+00:00,163250237,163228724,0,JamesMLane,Paul Krugman,"/* Criticism */ response to criticism is legitimately included, although the details can be left to the wikilink"
2008-03-22T18:41:37+00:00,200120066,200118615,0,Priyanath,Paul Krugman,rmv flag chicklet per [[WP:#Not for use in locations of birth and death]]
2021-04-02T17:59:55+00:00,1015650314,1012221219,0,MAHosieAPS,Paul Krugman,/* Awards */ Noted membership to the American Philosophical Society and added citation.
2017-11-12T19:13:03+00:00,809986145,809327279,0,2602:306:367A:5EC0:4A3:ECC6:5E1C:4371,Paul Krugman,/* Political views */
2013-03-20T15:31:03+00:00,545705479,545225875,0,Northamerica1000,Paul Krugman,/* See also */ + {{portal|Biography}}
2009-09-11T16:27:57+00:00,313212151,313191054,0,Lapsed Pacifist,Paul Krugman,/* Political views */
2006-11-08T00:25:49+00:00,86390263,86389883,0,RattBoy,Paul Krugman,"/* Criticisms */ rm spaces before refs, per Wikipedia:Footnotes"
2014-10-16T04:04:46+00:00,629807405,629494942,0,98.193.176.255,Paul Krugman,/* Nobel Memorial Prize in Economic Sciences */ corrected formal name of prize
2017-10-30T21:01:05+00:00,807920219,807918530,0,Darrend1967,Paul Krugman,/* top */ updated refs
2009-11-23T19:40:08+00:00,327523639,327273081,0,69.73.111.52,Paul Krugman,
2019-02-06T09:03:11+00:00,882020652,880765264,0,Websurfer2,Paul Krugman,Gerald Loeb Award
2018-06-03T17:34:34+00:00,844247978,842885272,0,Jane023,Paul Krugman,lf
2011-07-09T05:01:40+00:00,438525969,436486145,0,Krscal,Paul Krugman,/* External links */ added VIAF authority
2012-03-12T15:24:49+00:00,481525047,481151665,0,Safehaven86,Paul Krugman,/* Awards */
2009-09-13T19:18:43+00:00,313625969,313622049,0,72.19.82.214,Paul Krugman,/* Political views */
2007-09-20T02:49:49+00:00,159092488,159018720,0,EnOreg,Paul Krugman,/* Biography */ /currently/ married?!? Do you expect him to divorce anytime?
2013-09-15T08:00:08+00:00,572989504,572989099,0,Professor marginalia,Paul Krugman,Undid revision 572989099 by [[Special:Contributions/65.111.186.65|65.111.186.65]] ([[User talk:65.111.186.65|talk]])
2013-07-14T07:55:43+00:00,564197665,564196367,0,115.135.10.91,Paul Krugman,/* In popular culture */
2018-05-02T10:41:46+00:00,839269781,837415616,0,Sasbuk,Paul Krugman,/* External links */
2006-10-24T17:13:45+00:00,83456611,82987134,0,85.157.100.151,Paul Krugman,fi
2020-02-01T20:19:25+00:00,938690413,937392842,0,Ferclopedio,Paul Krugman,
2014-05-13T18:30:21+00:00,608423953,607572502,0,Solancious,Paul Krugman,
2007-02-18T07:26:59+00:00,109026311,109026189,0,74.118.155.110,Paul Krugman,/* Criticisms */
2007-08-30T18:47:10+00:00,154648799,154648182,0,Atlant,Paul Krugman,Reverted edits by [[Special:Contributions/83.182.196.19|83.182.196.19]] ([[User talk:83.182.196.19|talk]]) to last version by JayJasper
2019-01-29T10:09:12+00:00,880765264,879181388,0,Britishfinance,Paul Krugman,"Importing Wikidata [[Wikipedia:Short description|short description]]: ""American economist"" ([[User:Galobtter/Shortdesc helper|Shortdesc helper]])"
2008-11-28T08:52:43+00:00,254574566,254574362,0,Jan Tik,Paul Krugman,/* Author and journalist */ added link
2010-07-18T06:02:15+00:00,374092983,373923020,0,JamesMLane,Paul Krugman,/* References in popular culture */ punctuation
2011-08-12T18:48:52+00:00,444482687,444454121,0,Muboshgu,Paul Krugman,/* False claims */ Per [[Talk:Paul Krugman#New Criticism section]] and [[WP:UNDUE]]
2014-12-01T12:53:37+00:00,636164081,636162657,0,184.101.71.183,Paul Krugman,Undid revision 636162657 by [[Special:Contributions/ClueBot NG|ClueBot NG]] ([[User talk:ClueBot NG|talk]])
2010-07-23T08:56:44+00:00,375000192,374993483,0,Marcika,Paul Krugman,/* Enron consultancy */ time frame
2009-10-08T19:37:35+00:00,318716779,318713902,0,Lambanog,Paul Krugman,/* Political views */ thesis sentence supported by the rest of the paragraph
2007-06-26T01:08:29+00:00,140644325,135423042,0,69.120.17.3,Peter Schiff,
2010-01-23T17:02:44+00:00,339557771,339448019,0,Ioscius,Peter Schiff,/* Writings */
2021-06-29T20:39:10+00:00,1031101745,1017674162,0,24.154.222.167,Peter Schiff,Added relevant news coverage
2009-04-16T12:39:49+00:00,284199858,284156221,0,Claygate,Peter Schiff,"Reverted [[WP:AGF|good faith]] edits by [[Special:Contributions/Mtlhedd|Mtlhedd]]; Not the place for that kind of link, please add to external links.. ([[WP:TW|TW]])"
2021-01-15T07:31:28+00:00,1000472706,999368327,0,Llll5032,Peter Schiff,"copy edits, links, verb tense changes"
2014-08-11T18:00:39+00:00,620800272,620800153,0,110.148.158.194,Peter Schiff,
2019-07-17T17:56:34+00:00,906709943,906499054,0,MaximumIdeas,Peter Schiff,typo /* Business career */
2014-03-09T23:33:02+00:00,598906958,598836807,0,Polmandc,Peter Schiff,Undid revision 598836807 by [[Special:Contributions/24.36.216.89|24.36.216.89]] ([[User talk:24.36.216.89|talk]]) not relevant here
2015-09-30T15:05:19+00:00,683476890,683476667,0,108.14.205.232,Peter Schiff,
2012-02-15T12:22:51+00:00,476993656,476993220,0,Karpouzi,Peter Schiff,
2020-08-23T01:47:00+00:00,974438480,972105111,0,174.52.128.120,Peter Schiff,/* Criticism */ additional citation/expansion
2015-02-18T21:46:45+00:00,647769636,647769497,0,Wtmitchell,Phall,Reverted edits by [[Special:Contributions/Ilikecurry101|Ilikecurry101]] ([[User talk:Ilikecurry101|talk]]) ([[WP:HG|HG]])
2011-08-26T19:16:18+00:00,446866377,446863439,0,Mhoenig,Phall,Undid revision 446863439 by [[Special:Contributions/193.35.132.42|193.35.132.42]] ([[User talk:193.35.132.42|talk]]) - troll
2011-12-17T16:04:57+00:00,466351052,458169429,0,Tournesol,Phall,
2020-05-04T17:24:10+00:00,954856753,952539525,0,The Madras,Phall,
2014-04-14T17:40:58+00:00,604186914,602086858,0,RomanSpa,Political positions of Ron Paul,/* Voting Rights Act */
2014-06-27T22:44:00+00:00,614694340,610286957,0,RIConLaw1243,Political positions of Ron Paul,/* Lower spending and smaller government */
2015-06-30T08:52:23+00:00,669306110,668694787,0,108.40.198.116,Political positions of Ron Paul,/* Marijuana */
2010-12-12T17:25:25+00:00,401981543,401932326,0,128.253.211.40,Political positions of Ron Paul,/* Inflation and the Federal Reserve */
2022-05-09T17:53:50+00:00,1086997448,1060431166,0,20SS00,Poul Andersen (resistance member),/* References */
2013-09-09T15:27:22+00:00,572202737,522243999,0,Dreambeaver,Poul Andersen (resistance member),Added short description parameter
2009-05-14T11:40:07+00:00,289861828,245757520,0,RogDel,Poul Andersen (resistance member),Cleanup - vital dates
2012-11-09T22:15:44+00:00,522243999,472517969,0,Johnpacklambert,Poul Andersen (resistance member),/* References */ rem dup cat
2017-01-30T02:28:11+00:00,762667961,762667870,0,Neptune's Trident,Poul Andersen (resistance member),
2006-08-01T12:26:41+00:00,67027984,67027930,0,Tobias Conradi,Puno,utc
2022-10-24T13:32:39+00:00,1117963998,1089912178,0,ColRad85,Puno,
2008-05-01T10:30:35+00:00,209428394,208389309,0,Dr. Blofeld,Puno,
2010-04-30T14:15:36+00:00,359257377,359200223,0,DavidWBrooks,Puno,article has one photo of the cathedral - that's enough
2007-02-05T21:46:25+00:00,105893504,103006106,0,Thijs!bot,Puno,robot  Modifying: [[eo:Punjo]]
2010-09-08T10:04:56+00:00,383615753,383615673,0,Tabletop,Puno,/* External links */
2010-03-27T07:34:50+00:00,352300983,352243551,0,80.140.179.218,Puno,war
2012-08-24T01:20:26+00:00,508863966,506150892,0,76.110.168.186,Puno,/* Overview */
2010-09-16T22:59:05+00:00,385253662,383615753,0,Bxj,Puno,wikiedit
2011-12-15T20:40:49+00:00,466052808,465941943,0,Caparn,Quantitative easing,"Undid revision 465941943 by [[Special:Contributions/Lawrencekhoo|Lawrencekhoo]] ([[User talk:Lawrencekhoo|talk]]) It's not ""random"" you are just trying to delete any negative comments on QE, I will report you for edit warring if you undo."
2022-09-15T17:42:24+00:00,1110475989,1105687834,0,SdkbBot,Quantitative easing,/* Precedents */Fixed [[MOS:CONSECUTIVE|consecutive punctuation error]] and [[WP:GENFIX|general fixes]] ([[Wikipedia:Bots/Requests for approval/SdkbBot 3|task 3]])
2021-10-15T17:41:43+00:00,1050084641,1046271848,0,68.0.213.96,Quantitative easing,/* US QE4 */
2016-09-24T15:29:49+00:00,740976339,735490603,0,86.175.0.198,Quantitative easing,/* United Kingdom */
2021-01-29T22:52:19+00:00,1003633229,1000476231,0,Dreamy Jazz,Quantitative easing,Reverted edits by [[Special:Contribs/Molecular atrophy|Molecular atrophy]] ([[User talk:Molecular atrophy|talk]]) to last version by Yobot
2011-06-23T21:34:27+00:00,435874272,435871280,0,76.111.217.156,Quantitative easing,
2012-07-27T15:54:39+00:00,504447299,504048906,0,187.12.203.226,Quantitative easing,/* Effectiveness */
2018-07-22T21:05:36+00:00,851516532,851288258,0,LightonGo,Quantitative easing,"Corrected definition of expansionary monetary policy by  changing one single word from ""selling"" to ""buying"" of shorter maturity government bonds to increase the money stock and thereby lower short-term interest rates."
2020-11-16T18:49:38+00:00,989041774,987243034,0,73.106.79.75,Quantitative easing,
2019-09-27T02:17:22+00:00,918108694,918108498,0,2603:3025:203:3400:E5EB:2148:868C:F744,Quantitative easing,/* Fiscal Policy */
2019-04-02T20:24:19+00:00,890672122,887610718,0,Ornilnas,Quantitative easing,/* Monetary financing */ Removed activist language.
2016-03-01T00:28:33+00:00,707644415,705745093,0,2601:541:4204:7760:2544:8A46:6F56:2E13,Quantitative easing,change link
2008-02-09T11:05:03+00:00,190156194,185383287,0,DumZiBoT,Quantitative easing,"Bot: Converting bare references, see [[User:DumZiBoT/refLinks|FAQ]]"
2014-01-25T20:48:47+00:00,592375744,592375511,0,96.238.106.177,Quantitative easing,
2009-06-23T12:22:55+00:00,298114178,297914342,0,199.67.131.217,Quantitative easing,/* Origin */
2018-07-30T15:09:31+00:00,852666753,852666584,0,GrindtXX,Quantitative easing,"/* US QE1, QE2, and QE3 {{anchor|QE2|QE3}} */  [[WP:LQ]]"
2018-12-09T15:09:39+00:00,872840204,868133139,0,Galyet,Quantitative easing,
2013-03-11T17:03:50+00:00,543453873,543453489,0,B.Andersohn,Quantitative easing,/* Savings and pensions */ fixed footnote linking to Plan Sponsor article
2017-03-26T17:30:38+00:00,772329519,743379369,0,93.44.96.184,Ralph H. Fowler,link
2010-01-06T15:58:09+00:00,336214108,321685936,0,TXiKiBoT,Ralph H. Fowler,"robot Adding: [[ru:Фаулер, Ральф Говард]]"
2022-05-04T22:18:47+00:00,1086225687,1073178888,0,Charlie Awesome,Ralph H. Fowler,added [[Category:John Humphrey Plummer Professors]] using [[WP:HC|HotCat]]
2008-12-31T14:13:59+00:00,261089618,260203836,0,87.113.104.42,Ralph H. Fowler,
2016-02-19T02:24:18+00:00,705706923,703379214,0,Kcher12,Ralph H. Fowler,
2006-12-20T21:58:57+00:00,95600325,95599833,0,172.162.2.20,Replicas (album),
2021-04-04T18:08:19+00:00,1015977280,1014063623,0,Asb7uf,Replicas (album),
2012-03-26T04:48:28+00:00,483961700,481503079,0,88.104.31.77,Replicas (album),clean up / additional details
2011-08-28T01:36:11+00:00,447069139,446284244,0,ChuispastonBot,Replicas (album),r2.7.1) (robot Adding: [[sv:Replicas]]
2009-09-25T17:54:11+00:00,316163153,303686430,0,Davidkt,Replicas (album),/* 1999 Beggars Banquet CD reissue (BBL 7 CD) */
2012-11-29T20:05:52+00:00,525584801,514487273,0,Walterego,Replicas (album),
2014-09-12T18:30:49+00:00,625272140,615467481,0,87.254.72.12,Replicas (album),
2006-11-21T01:24:49+00:00,89134250,87562629,0,RobinCarmody,Richard Williams (journalist),
2007-06-17T16:26:44+00:00,138789081,138765771,0,Zvar,Richard Williams (journalist),Disambiguation page repair - [[Wikipedia:Disambiguation pages with links|You can help!]]: Establishment
2013-12-27T17:49:35+00:00,587943963,587943238,0,GoingBatty,Ringo Starr,"sang on ""some"" Beatles songs, not many"
2014-05-07T16:11:02+00:00,607496093,607389540,0,JamKaftan,Ringo Starr,birthplace
2015-11-16T21:04:04+00:00,690968218,670286952,0,Proscribe,Richard Williams (journalist),reorder Refs and External links
2017-05-06T12:49:53+00:00,779002327,778964431,0,John,Ringo Starr,no tabloids on BLPs please
2012-01-26T19:57:38+00:00,473387306,473336849,0,MusicforthePeople,Ringo Starr,Undid revision 473336849 by [[Special:Contributions/85.24.170.131|85.24.170.131]] ([[User talk:85.24.170.131|talk]]) Unsourced addition
2021-07-31T17:33:27+00:00,1036458220,1036079050,0,Jeswinj,Ringo Starr,"None of the other Beatles have ""during the 1960s"" so it's unnecessary"
2018-04-22T10:16:50+00:00,837683882,837682714,0,JG66,Ringo Starr,"Undid revision 837682714 by [[Special:Contributions/Enoska13|Enoska13]] ([[User talk:Enoska13|talk]]) to repeat, this has got nothing to do with Ringo Starr, imo – raise at talk page here and gain consensus for inclusion if you disagree"
2016-03-24T00:29:03+00:00,711636170,711056309,0,FlightTime,Ringo Starr,spelling per [[WP:ENGVAR]] by [[User:Ohconfucius/EngvarB|script]]
2019-10-10T18:44:13+00:00,920592647,920270418,0,Wiki Flocka Flame 2019,Ringo Starr,
2008-07-29T06:27:25+00:00,228552281,220548707,0,61.88.236.240,Rob Younger,
2010-12-02T17:10:47+00:00,400153717,384315296,0,Imc,Rob Younger,
2006-02-17T08:28:37+00:00,39988862,39988740,0,Samir,Rob Younger,Revert vandalism
2010-09-12T02:29:17+00:00,384315296,378527510,0,Mandarax,Rob Younger,Add DEFAULTSORT per [[WP:NAMESORT]] using [[Project:AWB|AWB]] (7069)
2022-07-03T03:58:58+00:00,1096223040,1061323691,0,SimLibrarian,Rob Younger,
2007-05-17T06:58:46+00:00,131485595,124448200,0,Belly whacker,Rob Younger,
2007-09-12T20:14:42+00:00,157453498,152269979,0,Morefun,Ron Asheton,
2018-08-11T20:34:08+00:00,854501726,854499786,0,Mike Selinker,Ron Asheton,added [[Category:Destroy All Monsters (band) members]] using [[WP:HC|HotCat]]
2019-04-06T01:55:16+00:00,891161625,891161578,0,Sc2353,Ron Asheton,added [[Category:21st-century American musicians]] using [[WP:HC|HotCat]]
2022-04-22T19:48:05+00:00,1084143822,1084143760,0,Actuallyjoseph,Ron Asheton,/* The Stooges */
2008-03-16T22:04:35+00:00,198721546,192965487,0,Synergy,Ron Asheton,/* External links */ Stubsensor cleanup project; [[User:Triddle/stubsensor/20070716|you can help!]]
2008-11-17T00:45:21+00:00,252262504,252260902,0,Tylerdmace,Ron Paul,A little more detail as to the many included in the Ron Paul Revolution.
2014-11-24T22:21:49+00:00,635299689,635299490,0,JayJasper,Ron Paul,Reverted [[WP:AGF|good faith]] edits by [[Special:Contributions/198.53.172.46|198.53.172.46]] ([[User talk:198.53.172.46|talk]]): - minor detail misplaced in this section. ([[WP:TW|TW]])
2016-01-17T16:19:20+00:00,700286895,700216072,0,CindyWhale,Ron Paul,I rearranged a comment.
2019-09-27T04:20:06+00:00,918124561,917467835,0,Nostalgiacritic,Ron Paul,
2013-07-21T18:05:57+00:00,565215649,565215098,0,PrairieKid,Ron Paul,/* Post-congressional career */ Removed barelink/primary/known bias citations and added one from Fox News (which is always credible- ESPECIALLY when talking about Paul)
2009-08-09T03:11:00+00:00,306906582,306906110,0,Soxwon,Ron Paul,[[WP:UNDO|Undid]] revision 306906110 by [[Special:Contributions/24.187.31.247|24.187.31.247]] ([[User talk:24.187.31.247|talk]])
2006-07-04T12:53:56+00:00,62013870,61946476,0,71.129.183.227,Ron Paul,/* Abortion */
2014-09-06T01:33:54+00:00,624359704,624241541,0,NapoleonX,Ron Paul,
2011-01-05T17:53:56+00:00,406118183,406117931,0,JayJasper,Ron Paul,"ce, updating"
2021-09-23T19:52:38+00:00,1046066715,1046066568,0,Jack Upland,Royal Commission into the New South Wales Police Service,Undid revision 1046066568 by [[Special:Contributions/Jack Upland|Jack Upland]] ([[User talk:Jack Upland|talk]])
2019-01-30T18:51:20+00:00,880985374,879626872,0,Adithyak1997,Royal Commission into the New South Wales Police Service,/* External links */Removing template contains useless word template error
2018-03-20T07:37:42+00:00,831374142,831348793,0,Eagleash,Royal Commission into the New South Wales Police Service,Undid revision 831348793 by [[Special:Contributions/Hetick1|Hetick1]] ([[User talk:Hetick1|talk]]) [[Help:Reverting|Reverting]] [[Wikipedia:Vandalism|vandalism]] or test edit
2010-09-15T01:10:23+00:00,384898343,381926044,0,60.241.29.30,Royal Commission into the New South Wales Police Service,
2016-02-13T11:07:21+00:00,704753760,704353116,0,Charmbox,Royal Commission into the New South Wales Police Service,
2015-10-06T20:22:28+00:00,684467906,684325712,0,MB,Rupert Sheldrake,fixed dab
2020-05-11T19:21:00+00:00,956150654,953086873,0,Totorotroll,Rupert Sheldrake,/* Personal life */
2017-07-26T00:15:35+00:00,792348784,790451682,0,Nigelj,Rupert Sheldrake,/* External links */ not known as a novelist
2008-02-28T01:24:25+00:00,194555782,194555649,0,Trilobitealive,Rupert Sheldrake,/* Later work */
2013-10-16T00:29:27+00:00,577362040,577360773,0,Manul,Rupert Sheldrake,Undid revision 577360773 by [[Special:Contributions/Alfonzo Green|Alfonzo Green]] ([[User talk:Alfonzo Green|talk]]) ([[WP:BRD]]) Please see the explanation on the talk page and discuss.
2012-09-01T00:58:44+00:00,510202906,510202764,0,81.106.127.14,Rupert Sheldrake,/* Career */
2013-11-01T19:31:14+00:00,579777385,579776476,0,Manul,Rupert Sheldrake,/* {{anchor|The Science Delusion}} {{anchor|Science Set Free}} The Science Delusion / Science Set Free */ ce
2008-06-18T06:02:12+00:00,220087588,220087584,0,Katanada,Seacon Square,Reverted edits by [[Special:Contributions/203.149.1.106|203.149.1.106]] to last version by Boeingairbus1992 (using [[WP:HG|Huggle]])
2019-08-31T11:55:06+00:00,913330190,904607481,0,Tigerathiwat,Seacon Square,/* Shopping */
2019-05-18T07:29:22+00:00,897616750,895930089,0,Tigerathiwat,Seacon Square,/* Leisure activities */
2007-05-25T08:20:30+00:00,133371531,133354526,0,Wisekwai,Seacon Square,rvt blanked section.
2022-03-06T08:10:25+00:00,1075527760,1061971647,0,JJMC89 bot III,Seacon Square,Moving [[:Category:Prawet District]] to [[:Category:Prawet district]] per [[Wikipedia:Categories for discussion/Speedy]]
2019-12-12T16:52:43+00:00,930458877,923692660,0,Kanyaratkamboonmee755,Seacon Square,
2011-02-13T17:45:25+00:00,413719396,407354410,0,Khemkhaeng,Seacon Square,/* Anchors */
2012-04-26T22:30:48+00:00,489384501,460284763,0,Jllm06,Seacon Square,added [[Category:Prawet District]] using [[WP:HC|HotCat]]
2011-07-19T11:21:31+00:00,440291385,440290393,0,Boghog,Shaker (gene),+ citations
2007-02-14T06:15:35+00:00,108017758,106571960,0,Arcadian,Shaker (gene),{{Ion channels}}
2009-09-18T09:56:33+00:00,314690863,307297920,0,Boghog,Shaker (gene),/* References */ added g3 group designation to ion channel navbox
2006-04-13T16:39:33+00:00,48293368,48293264,0,132.236.112.134,Shaker (gene),
2012-01-25T22:30:11+00:00,473233906,473233824,0,192.75.139.248,Shaker (gene),
2005-08-06T11:49:31+00:00,20403820,16054307,0,212.194.173.237,Small Faces,
2008-09-14T19:26:51+00:00,238418412,238416877,0,Surfer Joe,Small Faces,Added needed punctuation and a verb tense change.
2006-08-16T12:54:12+00:00,70005799,69995341,0,Lozarithm,Small Faces,/* Origins */
2016-11-29T21:50:47+00:00,752171017,743014030,0,156.29.37.24,Small Faces,
2021-04-07T08:02:03+00:00,1016454529,1012880299,0,Losnombres,Small Faces,
2006-05-11T17:23:42+00:00,52688945,52490097,0,David Edgar,Small Faces,"format song titles with double quotes instead of italics, as per wikipedia style"
2013-10-22T20:32:20+00:00,578311684,576046976,0,Amb1997,Small Faces,/* Band members */
2018-07-14T13:02:45+00:00,850213062,848561699,0,Gagwef,Small Faces,
2016-07-14T19:34:44+00:00,729819339,714725033,0,98.218.235.232,Sophie Scholl – The Final Days,/* Plot */
2017-03-08T05:34:04+00:00,769213449,758663216,0,Clifta,Sophie Scholl – The Final Days,/* Plot */ added link to mimeograph for clarification
2015-07-16T13:55:03+00:00,671710908,666678810,0,HIDECCHI001,Sophie Scholl – The Final Days,
2010-10-14T20:35:08+00:00,390753519,388863432,0,99.90.224.148,Sophie Scholl – The Final Days,
2010-05-29T19:24:37+00:00,364895900,363668465,0,Kchishol1970,Sophie Scholl – The Final Days,/* Plot */
2008-07-03T20:33:39+00:00,223377944,221857930,0,Wulf Isebrand,Sophie Scholl – The Final Days,
2019-06-06T22:14:23+00:00,900656779,877834809,0,IamNotU,"South Brisbane, Queensland",Reverted 1 edit by [[Special:Contributions/2001:8003:6005:5700:45D:4752:CE25:7D21|2001:8003:6005:5700:45D:4752:CE25:7D21]]: Not an improvement. Keep for consistency with many other articles. ([[WP:TW|TW]])
2019-01-11T05:14:29+00:00,877834809,877277214,0,2001:8003:6005:5700:45D:4752:CE25:7D21,"South Brisbane, Queensland",/* Heritage listings */
2008-02-05T22:12:49+00:00,189358142,188550985,0,DumZiBoT,"South Brisbane, Queensland",Bot: Converting [[User:DumZiBoT/refLinks|bare references]]
2007-03-16T11:48:43+00:00,115535262,115534239,0,Lilywatanabe,"South Brisbane, Queensland",
2006-05-25T08:44:34+00:00,55037883,55037432,0,Paddington62,"South Brisbane, Queensland",
2017-10-11T12:04:21+00:00,804830269,804830182,0,Saval,Southbank Centre,
2012-11-08T14:02:26+00:00,522001694,522001527,0,Saval,Southbank Centre,/* Future */
2022-07-02T03:12:57+00:00,1096069492,1095134355,0,Johnragla,Southbank Centre,/* External links */ added aerial photos
2010-08-16T21:50:26+00:00,379290910,372889378,0,Nick Number,Southbank Centre,/* Future */ sp constraint [[WP:TYPO]]
2014-05-01T10:19:25+00:00,606605092,602254274,0,195.99.219.98,Southbank Centre,/* Festival Wing proposal */
2009-01-11T10:08:33+00:00,263352920,253610223,0,Burgundo,Southbank Centre,interwiki
2013-09-26T10:12:15+00:00,574583979,573670305,0,Saval,Southbank Centre,/* Festival Wing proposal */ link to Lambeth council information on the planning application
2015-12-02T04:26:38+00:00,693376804,689251976,0,Hillbillyholiday,Southbank Centre,links
2013-08-24T03:58:16+00:00,569948061,569947955,0,66.41.154.0,SpaceX Dragon,/* General characteristics */
2010-08-31T03:44:22+00:00,382004403,381835683,0,Robert Horning,SpaceX Dragon,Changing lead paragraph to reflect that the quality of the heat shield is related to mission profile
2006-12-18T19:57:48+00:00,95153025,87686742,0,Chrislk02,SpaceX Dragon,+ 1 reference
2015-07-09T22:14:56+00:00,670740108,669334526,0,Guyver,SpaceX Dragon,/* See also */  fixing typo  Tranport -> Transport
2016-05-25T16:34:46+00:00,722042739,721060110,0,HolyT,SpaceX Dragon,/* DragonLab */ ce
2010-03-04T20:36:41+00:00,347772199,346446935,0,IanOsgood,SpaceX Dragon,/* Development */ link to qualification unit
2020-06-09T06:26:26+00:00,961567855,961505512,0,199.66.65.78,SpaceX Dragon,Changed word to number for consistency
2013-10-23T20:29:16+00:00,578452719,569535091,0,110.175.80.205,"St Vincent's Hospital, Sydney",/* Current hospital */
2006-10-13T07:28:57+00:00,81168884,75871070,0,Cattona,"St Vincent's Hospital, Sydney",
2011-09-07T09:16:28+00:00,448909217,448909093,0,Sardaka,"St Vincent's Hospital, Sydney",rearranged pix
2012-06-08T16:05:57+00:00,496616619,492116198,0,CarrieVS,"St Vincent's Hospital, Sydney",/* Current hospital */ Repairing links to disambiguation pages - [[Wikipedia:Disambiguation pages with links|You can help!]]
2007-12-02T04:36:18+00:00,175200740,175200194,0,Cattona,"St Vincent's Hospital, Sydney",
2018-01-14T10:49:49+00:00,820376388,800027310,0,ITBF,"St Vincent's Hospital, Sydney",
2006-06-23T02:08:59+00:00,60103088,57257234,0,Longhair,"St Vincent's Hospital, Sydney",cat
2010-04-03T13:19:47+00:00,353723737,353723562,0,Rms125a@hotmail.com,"St Vincent's Hospital, Sydney",/* References */
2016-12-23T21:17:36+00:00,756380882,744531712,0,Widefox,Steve Keen,/* References */ ref cols
2005-12-30T16:32:37+00:00,33264126,17962002,0,Bluemoose,Steve Keen,[[WP:AWB|AWB Assisted]] clean up
2007-04-21T17:45:02+00:00,124644259,119243326,0,84.43.126.137,Steve Keen,/* Keen's critique of neoclassical theory */
2010-10-06T17:38:39+00:00,389137701,389137599,0,24.130.146.45,Steve Keen,
2019-02-14T15:26:07+00:00,883301620,863955591,0,Kku,Steve Keen,link [[neoclassical synthesis]] using [[:en:User:Edward/Find link|Find link]]
2022-08-17T21:58:37+00:00,1104980512,1098899988,0,Hunan201p,Steve Keen,
2014-09-20T20:51:08+00:00,626387398,625623195,0,89.73.73.20,Steve Keen,Undid revision 625623195 by [[Special:Contributions/72.193.112.59|72.193.112.59]] ([[User talk:72.193.112.59|talk]])
2012-06-13T20:29:46+00:00,497448767,496608109,0,Id447,Steve Keen,/* External links */ added a link to bbc's analysis
2019-11-21T19:03:18+00:00,927321441,916430042,0,Nuretok,Steve Keen,Cleanup external links and added reference
2006-06-03T14:58:33+00:00,56667316,33264126,0,129.78.208.4,Steve Keen,Added about leading protests at Sydney Uni
2018-02-18T01:40:28+00:00,826244380,826244229,0,Vabadus91,Steve Keen,/* Views on the UK's EU referendum */
2010-03-11T08:21:01+00:00,349179912,346610376,0,Themfromspace,Steve Keen,Undid revision 312535455 by [[Special:Contributions/Nfeik|Nfeik]] ([[User talk:Nfeik|talk]]) linkspammed across multiple pages
2007-09-04T12:24:20+00:00,155615379,155247868,0,76.10.148.166,Subprime mortgage crisis,/* Role of world central banks in stabilization */
2013-01-05T19:49:10+00:00,531495800,529997903,0,Farcaster,Subprime mortgage crisis,Fix wikification
2011-02-19T05:30:33+00:00,414738214,413777320,0,173.79.59.13,Subprime mortgage crisis,
2022-03-06T16:45:52+00:00,1075592585,1075592326,0,195.224.90.10,Subprime mortgage crisis,/* Boom and bust */
2015-02-17T20:32:38+00:00,647601971,646656521,0,Mdnahas,Subprime mortgage crisis,fix dead link
2021-06-13T23:02:24+00:00,1028429268,1027849272,0,Sdkb,Subprime mortgage crisis,"[[WP:GENFIX|general]] clean up, replaced: |work=New York Times → |work=[[The New York Times]] (2)"
2008-05-03T17:22:31+00:00,209935501,209935249,0,86.163.4.15,Subprime mortgage crisis,/* The Federal Reserve */
2012-03-17T22:43:59+00:00,482445161,479625923,0,128.36.27.235,Subprime mortgage crisis,
2014-10-07T23:41:37+00:00,628720713,627713598,0,Farcaster,Subprime mortgage crisis,Add chart; move charts around a bit
2015-07-31T06:39:03+00:00,673895575,673895495,0,Yiannax.,"Sunnybank Hills, Queensland",/* Public Transport */
2010-09-07T12:31:45+00:00,383442727,383442676,0,115.70.106.104,"Sunnybank Hills, Queensland",/* Shopping */
2006-04-18T09:54:39+00:00,48978844,48978649,0,220.101.173.226,"Sunnybank Hills, Queensland",
2022-02-14T07:20:12+00:00,1071765737,1061671775,0,Wcquidditch,"Sunnybank Hills, Queensland",Disambiguating links to [[Kmart (disambiguation)]] (link changed to [[Kmart Australia]]) using [[User:Qwertyytrewqqwerty/DisamAssist|DisamAssist]].
2012-12-23T05:47:54+00:00,529402131,526189853,0,Shiftchange,"Sunnybank Hills, Queensland","remove ext. links not belonging, tidy"
2014-10-28T22:36:51+00:00,631526242,631526122,0,Oleaster,Surfing,Reverted 1 edit by [[Special:Contributions/31.53.188.43|31.53.188.43]] ([[User talk:31.53.188.43|talk]]) to last revision by Velella. ([[WP:TW|TW]])
2010-06-30T13:40:16+00:00,371010221,371007410,0,Gjs238,Surfing,Undid revision 371007410 by [[Special:Contributions/122.162.232.25|122.162.232.25]] ([[User talk:122.162.232.25|talk]])
2009-05-26T00:40:32+00:00,292335780,292244652,0,Invertzoo,Surfing,/* Sea life */ tweak
2020-09-15T22:05:46+00:00,978603942,977746484,0,DavidBrooks-AWB,Surfing,Short description first per [[MOS:ORDER]]
2021-08-09T03:30:12+00:00,1037856969,1037846229,0,Bengm6,Surfing,added mention of tandem surfing
2008-12-02T21:38:24+00:00,255500347,255487468,0,87.194.230.166,Surfing,
2012-10-11T05:39:30+00:00,517141137,516880254,0,134.117.250.4,Surfing,
2005-12-29T12:47:29+00:00,33117036,33116387,0,Baje Tiger,Surfing,/* Popular surfing areas */
2005-12-28T13:32:02+00:00,32994299,32876831,0,192.249.47.9,Susan George,Added content
2011-05-12T08:01:43+00:00,428717611,333551637,0,RibotBOT,Susan George,r2.6.5) (robot Adding: [[ca:Susan George]]
2006-06-12T18:03:14+00:00,58240898,57733535,0,IXIA,Susan George,
2007-12-29T12:35:34+00:00,180788471,119120765,0,Bapho~enwiki,Susan George,Susan Elizabeth George added
2005-08-05T10:39:41+00:00,20328250,19976631,0,203.54.44.67,Suzi Lovegrove,Troy died in 1993: Vince was engaged to Caroline in 1995.
2015-09-24T19:10:17+00:00,682600324,660505449,0,Millionsandbillions,Suzi Lovegrove,/* top */ already linked earlier
2015-11-01T12:23:00+00:00,688513227,682600324,0,ColRad85,Suzi Lovegrove,Disambiguated: [[The Valentines]] → [[The Valentines (rock band)]]
2021-04-14T07:36:38+00:00,1017716886,1017671816,0,49.178.14.219,Sydney,/* Infrastructure */
2021-06-10T07:41:54+00:00,1027830011,1027446253,0,49.178.18.161,Sydney,/* Housing */
2019-02-08T05:36:06+00:00,882311248,882272908,0,Laterthanyouthink,Sydney,/* See also */ Changed see also ref for crime after merge.
2017-09-28T22:11:47+00:00,802857561,802855964,0,Subtropical-man,Sydney,Reverted edits by [[Special:Contribs/2001:8003:4EC3:AD00:893:D2E:7FED:D56B|2001:8003:4EC3:AD00:893:D2E:7FED:D56B]] ([[User talk:2001:8003:4EC3:AD00:893:D2E:7FED:D56B|talk]]) to last version by AussieLegend
2018-10-03T09:12:23+00:00,862273870,862190229,0,FayssalF,Sydney,added [[Category:UNESCO Creative Cities Network]] using [[WP:HC|HotCat]]
2015-05-06T11:31:52+00:00,661085518,659852087,0,Ashton 29,Sydney,/* Environmental issues and pollution reduction */
2017-08-25T12:26:42+00:00,797182056,797163523,0,Heuerham,Sydney,Corrected Townsend's title
2008-07-31T15:32:49+00:00,229032881,227033818,0,24.62.60.45,Systemic risk,
2018-03-29T06:14:46+00:00,833015186,829638219,0,Fayenatic london,Systemic risk,removed [[Category:Insurance terms]]; added [[Category:Insurance industry]] using [[WP:HC|HotCat]] - [[Wikipedia:Categories_for_discussion/Log/2018_February_11]]
2006-02-19T21:58:49+00:00,40333569,37196191,0,84.160.147.125,Systemic risk,
2011-07-05T09:39:24+00:00,437843438,437843334,0,P4Pocket,Systemic risk,/* Diversification */
2019-03-02T20:26:06+00:00,885860386,885860179,0,Ge ma105,Systemic risk,/* Pair/Vine Copulas */
2020-01-24T00:22:43+00:00,937277136,917766787,0,Scholaris rerum obscurarum,Systemic risk,"Discussion in section ""Structural models under financial interconnectedness""  Please see the Talk page for an explanation."
2012-12-25T15:56:48+00:00,529726433,527451156,0,Zhengzy,Systemic risk,/* Further reading */
2014-02-07T13:08:24+00:00,594363867,592184956,0,Bjleslie,Systemic risk,
2008-03-09T08:03:30+00:00,196960475,187002855,0,Le Pied-bot~enwiki,Systemic risk,robot  Adding: [[ms:Risiko sistemik]]
2015-04-09T22:13:38+00:00,655744734,642993196,0,Robevans123,Systemic risk,/* Structural models under financial interconnectedness */ typo
2008-04-28T11:37:49+00:00,208732073,204426813,0,12.25.95.5,Systemic risk,Systematically changed systematic to systemic
2014-03-02T13:54:38+00:00,597807872,594363867,0,Horselover Fats,Systemic risk,/* See also */
2008-11-02T19:36:45+00:00,249241947,248479126,0,217.162.167.1,Systemic risk,
2009-12-01T09:00:18+00:00,328995496,327500209,0,Carlos Rosa PT,Systemic risk,
2005-10-24T04:43:50+00:00,26333881,25744386,0,202.89.151.92,Systemic risk,
2014-03-30T22:05:08+00:00,602018877,602018395,0,76.98.252.245,Systemic risk,
2007-06-11T20:41:53+00:00,137530497,122885140,0,Jpbowen,Systemic risk,Added category
2014-01-24T15:36:46+00:00,592184956,589896119,0,Shalapaws,Systemic risk,/* Further reading */
2014-12-03T00:04:44+00:00,636389426,636355022,0,Jojalozzo,Systemic risk,Undid revision 636355022 by [[Special:Contributions/150.212.2.112|150.212.2.112]] ([[User talk:150.212.2.112|talk]]) unexplained deletion
2007-07-21T16:11:04+00:00,146144342,145960368,0,Taion,Talk:Austrian school of economics,"/* Heterodox status, cardinal utilities */"
2005-12-13T18:20:45+00:00,31217247,30153321,0,Hogeye,Talk:Austrian school of economics,[[Subjective Theory of Value]]
2009-07-11T21:02:05+00:00,301589808,301291971,0,Snjmom,Talk:Austrian school of economics,Grammer unclear
2012-03-10T00:28:33+00:00,481090640,481046198,0,Wwoods,Talk:Austrian school of economics,section header
2009-10-24T09:34:57+00:00,321729017,321728939,0,TheMakianDistribution,Talk:Austrian school of economics,/* Utility Gibberish */
2006-05-01T02:19:54+00:00,50983762,50983668,0,Mohammadgani,Talk:Austrian school of economics,/* Analytical Framework? */
2009-05-05T20:49:35+00:00,288128309,287553783,0,207.108.75.130,Talk:Austrian school of economics,/* vagueness in contribution section */
2010-11-10T15:08:04+00:00,395944888,394705752,0,198.62.98.200,Talk:Austrian school of economics,/* Criticism of Mainstream Practices */
2011-05-07T00:07:59+00:00,427833559,426335866,0,89.217.134.83,Talk:Austrian school of economics,
2008-01-28T06:30:26+00:00,187419898,184577932,0,75.84.203.26,Talk:Austrian school of economics,/* Interpretation of the time value of a good */ new section
2005-09-12T18:20:23+00:00,23112743,22901993,0,User2004,Talk:Austrian school of economics,/* Miss people */ go for it
2011-12-12T19:23:32+00:00,465504010,407392567,0,85.131.101.65,Talk:Bank run,/* Ban call for Bank run */ Reuters article and Latvia
2010-04-07T20:54:35+00:00,354604219,304073612,0,Video99,Talk:Bank run,/* The cost of cleaning up a systemic banking crisis can be huge... */  Item is repeated.
2008-11-12T20:13:06+00:00,251404455,251404167,0,Rverzola,Talk:Criticism of fractional-reserve banking,/* conventional analysis */
2019-03-31T06:29:26+00:00,890259688,884594769,0,Zyzzek,Talk:Fiat money,/* Claim that fiat money originated in China */ new section
2015-09-13T15:14:44+00:00,680845580,637669625,0,Mark v1.0,Talk:Fiat money,
2017-12-29T21:42:41+00:00,817671680,817670521,0,Artbrock,Talk:Fiat money,Added sub-header
2008-05-11T20:17:14+00:00,211720700,210875164,0,JHMM13,Talk:Fiat money,/* Currency Competition */ new section
2008-06-05T06:22:34+00:00,217251353,217251264,0,165.228.179.155,Talk:Fractional-reserve banking,/* Question about fractional banking */
2005-08-02T03:19:22+00:00,20091327,16268184,0,Afelton,Talk:Fractional-reserve banking,added some criticism from the [[Federal Reserve]] page
2009-05-29T11:23:51+00:00,293075112,292080929,0,82.181.73.101,Talk:Fractional-reserve banking,/* This article doesn't get the basics of fractional reserve banking correct */
2010-03-10T19:51:11+00:00,349060709,347194577,0,Tonidepoli,Talk:Fractional-reserve banking,/* added some criticism from the Federal Reserve page */
2006-11-15T19:57:55+00:00,88045108,88044865,0,209.167.194.156,Talk:Fractional-reserve banking,/* Just a general comment */
2010-12-04T21:01:37+00:00,400548578,400537373,0,Wwoods,Talk:Fractional-reserve banking,/* U.S. centric */
2016-12-23T15:02:15+00:00,756336201,754638773,0,47.222.203.135,Talk:Fractional-reserve banking,"/* One textbook is not ""many"" textbooks */ pointer to the relevant policy-snippet"
2010-07-01T08:27:03+00:00,371167746,371167517,0,Bkalafut,Talk:Fractional-reserve banking,/* Merger proposal */  now I see what happened.  Removing four more superfluous square brackets
2011-08-19T11:17:01+00:00,445652061,445646197,0,Erel Segal,Talk:Fractional-reserve banking,/* The combined effect of loan interest and fractional reserve banking */
2012-07-06T18:57:18+00:00,500991386,500975053,0,DamienMea,Talk:Fractional-reserve banking,/* (Why) do banks create new money only as a portion of the central bank money deposited? */
2014-04-17T12:43:48+00:00,604589031,604084717,0,Wikirpg,Talk:Fractional-reserve banking,"/* Reference ""Where Does Money Come From"" */"
2014-09-30T18:06:27+00:00,627709073,627709013,0,Andrewa,Talk:Fractional-reserve banking,/* Requested move */ fix my typo
2008-11-06T10:02:40+00:00,250006843,249378049,0,BananaFiend,Talk:Fractional-reserve banking,/* Recent edits (5th November) */ new section
2009-06-25T18:15:56+00:00,298601055,297080396,0,Bshow,Talk:Fractional-reserve banking,/* Leveraging. */
2011-06-19T19:55:20+00:00,435145418,435047516,0,67.6.248.180,Talk:Fractional-reserve banking,"/* How money is ""created"" is not explained */"
2009-06-15T15:14:54+00:00,296555046,296554845,0,86.157.181.137,Talk:Fractional-reserve banking,/* Leveraging. */
2009-01-12T20:31:44+00:00,263656070,263654808,0,Maciekskje,Talk:Fractional-reserve banking,
2006-10-17T20:39:01+00:00,82065853,82065505,0,Jcernharth,Talk:Fractional-reserve banking,/* Some clarifications that might help / and on Inflation */
2012-08-20T06:57:28+00:00,508247530,508217053,0,Wwoods,Talk:Fractional-reserve banking,/* Ranting */
2009-09-16T06:25:38+00:00,314288821,314288748,0,68.0.136.65,Talk:Full-reserve banking,"/* Some clarification, please */"
2020-02-17T06:53:38+00:00,941213941,941213857,0,Nathaniel Tolles,Talk:Full-reserve banking,Update [[Wikipedia:Wiki_Ed/Claremont_McKenna_College/Public_Economics_(2020)|Public Economics]] assignment details
2009-11-21T18:25:54+00:00,327146117,327145512,0,83.86.5.150,Talk:Full-reserve banking,"/* Some clarification, please */"
2006-03-13T21:20:32+00:00,43623178,42912247,0,Doktor~enwiki,Talk:Full-reserve banking,
2007-04-18T08:35:31+00:00,123762142,102656276,0,Longhair,Talk:Ginger Meggs,television=yes
2009-08-25T22:16:31+00:00,310052867,289659631,0,Das Baz,Talk:Ginger Meggs,/* Copyvio */
2005-12-09T14:16:09+00:00,30712693,29679280,0,Brian0918,Talk:Inflation,removing external link spam from user's signature
2006-10-02T17:41:24+00:00,79073719,77684266,0,Kruckenberg.1,Talk:Inflation,Point of View in article
2022-09-13T15:55:55+00:00,1110102626,1110102576,0,Blaze Wolf,Talk:Inflation,[[WP:ROLLBACK|Reverted]] edits by [[Special:Contributions/197.220.89.39|197.220.89.39]] ([[User talk:197.220.89.39|talk]]) to last revision by Antandrus: nonconstructive edits
2015-07-20T12:06:01+00:00,672262697,671965029,0,Yaris678,Talk:Inflation,/* Effects on earnings */ Add nowiki tags because I think 222.154.79.246 intended an asterisk
2005-12-18T15:51:12+00:00,31854682,30712693,0,Gwaka Lumpa,Talk:Inflation,
2007-04-29T13:18:18+00:00,126849041,126848987,0,Wholikespotatoes,Talk:Inflation,
2005-11-21T17:02:59+00:00,28916664,28123514,0,64.231.138.190,Talk:Inflation,/* Inflation Poetry */
2010-12-23T10:42:28+00:00,403854438,403842486,0,Radical Mallard,Talk:Inflation,/* Issue with Austrian School/Monetarist or other -ist Ideological or Philosophical Slant */
2012-03-21T01:36:15+00:00,483011465,483011328,0,93.172.241.70,Talk:Inflation,/* Are you sure the explanation of infaltion effects are correct? */
2006-12-30T10:51:17+00:00,97317716,97022684,0,131.215.242.164,Talk:Inflation,/* History of Inflation */
2006-01-28T15:37:17+00:00,37086612,36914299,0,Watercolour,Talk:Inflation,/* Real Meaning of Inflation */
2008-06-04T05:41:57+00:00,217008402,215409550,0,DOR (HK),Talk:Inflation,/* Inflation and exchange rates */
2010-02-19T01:07:03+00:00,344930410,341981781,0,Spinnaker gybe,Talk:Inflation,/* Inflation Caused By Circulation of Money reference */ new section
2007-09-21T01:49:38+00:00,159301327,159094928,0,Tacitus Prime,Talk:Inflation,/* What about Growth? */
2006-07-28T11:34:09+00:00,66334808,65845347,0,Rrman,Talk:Inflation,Is inflation inevitable?
2008-06-20T08:55:12+00:00,220529505,220503007,0,Van helsing,Talk:Inflation,[[WP:UNDO|Undid]] revision 215409550 by [[Special:Contributions/67.14.250.188|67.14.250.188]] ([[User talk:67.14.250.188|talk]])
2011-11-18T06:15:50+00:00,461238104,376906955,0,Seascapeza,Talk:Lepadidae,answer
2020-07-15T01:38:49+00:00,967745161,821653391,0,70.171.6.9,Talk:Jon Cleary,/* A play */ new section
2008-04-21T04:09:49+00:00,207049515,206714727,0,Youngea,Talk:Libertarianism,/* Non-Gender Neutral Language */
2019-11-18T01:40:21+00:00,926686796,926583084,0,Czar,Talk:Libertarianism,/* Merging left- and right-libertarian distinction to one place */ question about leftovers
2008-09-26T17:24:59+00:00,241165870,239541796,0,71.131.13.192,Talk:Libertarianism,/* Contradictions */
2012-01-27T14:25:14+00:00,473516667,473506371,0,Fsol,Talk:Libertarianism,/* Property rights again */
2007-07-02T17:44:17+00:00,142050565,137725580,0,Notque,Talk:Libertarianism,/* Criticism Question */
2014-11-12T14:19:53+00:00,633526077,631709765,0,184.175.46.87,Talk:Libertarianism,/* Proposal */
2010-10-23T20:26:12+00:00,392468452,392466830,0,Anatoly-Rex,Talk:Libertarianism,/* Libertarian Marxism */
2016-08-28T03:40:45+00:00,736527814,736525443,0,Bunco man,Talk:Libertarianism,"/* Cleanup for Neutrality, Clarity, etc */"
2006-06-21T14:48:18+00:00,59818739,59791168,0,D-Rock,Talk:Libertarianism,/* rv persistent counter-consensus edit */ time out?
2017-04-10T23:21:26+00:00,774835985,774835914,0,Beyond My Ken,Talk:Libertarianism,/* top */
2016-10-23T03:12:49+00:00,745754571,745754013,0,LuckyLag360,Talk:Libertarianism,/* Centrist Libertarianism */
2007-11-07T01:53:33+00:00,169750574,169744145,0,SandyGeorgia,Talk:Libertarianism,"talk page cleanup, articlehistory is good (per query at articlehistory)"
2007-07-26T20:08:05+00:00,147298158,145633833,0,143.127.3.10,Talk:Libertarianism,What happened?
2007-10-28T21:27:18+00:00,167706775,167673656,0,Fubar Obfusco,Talk:Libertarianism,/* Structure */
2007-12-24T16:30:46+00:00,179970594,177824491,0,24.217.78.231,Talk:Libertarianism,/* Initiation of physical force */
2007-04-13T20:34:03+00:00,122580750,114566666,0,Samwaltz,Talk:Libertarianism,New Template:Lib
2006-03-09T05:24:19+00:00,42926815,42920944,0,RJII,Talk:Libertarianism,/* Footnote Reference */
2020-09-29T09:00:39+00:00,980929044,966577596,0,103.102.116.221,Talk:Libertarianism,
2007-03-01T17:15:45+00:00,111862046,111861887,0,Tellyaddict,Talk:Libertarianism,Reverted 1 edit by [[Special:Contributions/209.244.7.243|209.244.7.243]] ([[User talk:209.244.7.243|talk]]) to last revision (111834735) by Bobfrombrockley using [[WP:VPRF|VP]]
2010-02-02T16:55:45+00:00,341503283,341249387,0,Trust Is All You Need,Talk:Libertarianism,
2021-09-27T07:38:30+00:00,1046750466,1046194016,0,Jamzze,Talk:Libertarianism,Anarchism assessment
2007-05-08T02:02:37+00:00,129126544,129126457,0,GeMiJa,Talk:Libertarianism,/* Two types of libertarians? */
2019-08-10T21:41:08+00:00,910270104,906233358,0,MarioGom,Talk:Libertarianism,Assessment: −Socialism ([[User:Evad37/rater.js|Rater]])
2017-06-11T11:15:10+00:00,785053678,784319990,0,Dennis Brown,Talk:Libertarianism,/* Project page and general discussions on libertarianism */ add
2009-07-06T02:13:08+00:00,300515975,298224516,0,Chris G,Talk:Mad (magazine),Fix archive config.
2006-01-16T00:44:48+00:00,35335931,35335565,0,68.45.51.119,Talk:Mad (magazine),
2006-06-27T00:24:53+00:00,60752196,60634954,0,192.251.125.85,Talk:Mad (magazine),/* Too informal introduction */
2006-10-28T04:07:30+00:00,84177972,84177065,0,89.164.21.28,Talk:Mad (magazine),/* Fester Besterchester */
2019-03-06T17:06:59+00:00,886494478,886494201,0,2602:306:CFCE:1EE0:70F7:2929:3504:696C,Talk:Mainstream economics,/* Delete section: United States */  Minor correction of my post.
2017-01-29T14:16:32+00:00,762552939,762549921,0,Boing! said Zebedee,Talk:Mainstream economics,Reverted 1 edit by [[Special:Contributions/MKizilAslan|MKizilAslan]] ([[User talk:MKizilAslan|talk]]): Rv email address. ([[WP:TW|TW]])
2009-05-18T14:25:01+00:00,290718718,246775778,0,193.136.136.174,Talk:Mainstream economics,/* Is Ausrian Economics Really Heterodox??? */
2006-08-29T05:24:50+00:00,72550362,72550134,0,Epsoul,Talk:Mamdouh Habib,/* inadequately explained excision */
2014-01-03T14:05:36+00:00,588977315,588898426,0,Mainperson,Talk:Mamdouh Habib,"/* non-divulged evidence has ""no value""? */"
2011-04-13T15:42:05+00:00,423873006,379502061,0,Meno25,Talk:Mamdouh Habib,rate
2020-03-27T11:11:17+00:00,947609534,817024448,0,JarrahTree,Talk:Mamdouh Habib,add politics-importance=low (via [[WP:JWB]])
2006-10-25T23:34:46+00:00,83738583,83734963,0,Epsoul,Talk:Mamdouh Habib,/* inadequately explained excision */
2006-04-02T05:51:26+00:00,46557513,39845667,0,NatslovR,Talk:Mamdouh Habib,Supress torture allegations
2010-06-04T02:08:22+00:00,365945710,365944642,0,J.R. Hercules,Talk:Milton Friedman,Placement of latest discussion topic on bottom of talk page
2012-07-24T16:54:49+00:00,503972930,503972801,0,JayJasper,Talk:Milton Friedman,archived thread from 2011
2019-06-10T16:21:13+00:00,901245391,899884808,0,Dark567,Talk:Milton Friedman,
2008-09-22T04:33:14+00:00,240159401,239708398,0,WinterSpw,Talk:Monetary inflation,/* Definition  comprehension */ new section
2005-06-23T15:36:12+00:00,17709817,0,0,207.5.110.24,Talk:Monetary reform,
2007-03-27T14:47:54+00:00,118268091,116839678,0,82.211.83.9,Talk:Monetary inflation,
2011-02-17T06:13:45+00:00,414387555,414387092,0,125.7.71.6,Talk:Muhamed Haneef,/* But what if Haneef is not so innocent? */
2021-05-10T22:38:05+00:00,1022511072,1022504750,0,Davemck,Talk:Neo-Keynesian economics,rmv duplicate parm
2011-12-05T21:20:49+00:00,464276800,464199266,0,Sphilbrick,Talk:Paul Krugman,/* Edit to influences field in infobox */ try again to follow policy
2009-01-30T22:29:08+00:00,267491824,266452061,0,DavidRF,Talk:Paul Krugman,/* Informationa Box */ reply
2006-11-09T12:42:24+00:00,86702155,86702123,0,Johnleemk,Talk:Paul Krugman,/* Lying In Ponds Website as Reference */ fmt
2018-05-04T03:40:39+00:00,839545120,822709912,0,GuzzyG,Talk:Paul Krugman,adding VA template
2020-12-02T15:36:44+00:00,991926441,987117242,0,ProcBot,Talk:Paul Krugman,[[Wikipedia:Bots/Requests for approval/ProcBot 7|Task 7]]: Implement [[Wikipedia:Templates_for_discussion/Log/2020_October_4|TfD]]
2015-08-24T17:16:55+00:00,677648734,675355853,0,Izkala,Talk:Peter Schiff,[[Wikipedia:Templates for discussion/Log/2015 August 14#Template:Please be neutral]] using [[Project:AWB|AWB]]
2008-10-17T21:14:09+00:00,245973731,214334361,0,Mr. Bergstrom,Talk:Peter Schiff,"/* ""Accurate"" forecasts */ new section"
2012-12-20T16:07:42+00:00,528973863,528959888,0,Keithbob,Talk:Peter Schiff,/* My edits to Reception section */ cmt
2009-02-10T15:01:01+00:00,269777262,263631862,0,81.99.118.248,Talk:Peter Schiff,
2006-12-03T00:25:11+00:00,91687277,47585249,0,70.111.218.254,Talk:Systemic risk,Systemic vs. Systematic
2009-04-05T03:10:43+00:00,281827564,274945900,0,189.115.5.90,Tash (Narnia),
2018-11-06T12:13:02+00:00,867546399,858312237,0,79.65.204.147,Tash (Narnia),uncited and irrelevant - no connection to Turkey is mentioned in this article
2022-06-18T21:26:04+00:00,1093794983,1006617288,0,TompaDompa,Tash (Narnia),Short description.
2006-04-09T18:15:44+00:00,47726245,47085715,0,Satanael,Tash (Narnia),
2019-03-09T20:09:58+00:00,886976537,883016600,0,Atreides123,Tash (Narnia),/* The Last Battle */
2014-06-29T23:18:15+00:00,614943530,607568276,0,Goustien,Tash (Narnia),infobox image
2017-10-08T15:32:09+00:00,804371221,787930472,0,2A01:E35:8BE1:27D0:C1FA:C11A:AAF1:9354,Tash (Narnia),/* The Last Battle */
2013-12-24T23:04:33+00:00,587572293,587572065,0,Victorgrigas,Ted Kaczynski,/* Early life */
2018-02-17T11:02:21+00:00,826132115,824729261,0,Grant65,Ted Kaczynski,"/* Related works and influences */ replaced link to ""cultural [[Marxism]]"" with one to ""[[cultural Marxism]]"""
2006-09-10T20:27:44+00:00,74963591,74347838,0,80.203.35.80,Ted Kaczynski,/* Bombings */
2021-08-01T02:30:31+00:00,1036519626,1036519487,0,Garmin21,Ted Kaczynski,Undid revision 1036519487 by [[Special:Contributions/174.131.64.188|174.131.64.188]] ([[User talk:174.131.64.188|talk]]) Vandalism
2013-09-05T02:42:03+00:00,571593944,571167807,0,Rakishboy,Ted Kaczynski,/* Montana */  boyfriend
2022-07-19T01:20:42+00:00,1099104647,1099001331,0,Lindsey40186,Ted Kaczynski,v2.04 - Fix errors for [[WP:WCW|CW project]] (Spelling and typography - Template with deprecated parameter)
2013-03-23T15:50:36+00:00,546557990,546410338,0,Redblackwritings,Ted Kaczynski,
2010-05-30T17:47:03+00:00,365055969,364373976,0,Michael Essmeyer,Ted Kaczynski,
2008-12-22T01:34:00+00:00,259447023,254217044,0,60.234.131.6,Template:Brisbane bridges navigation,
2008-05-29T02:00:01+00:00,215641467,215640716,0,Hordaland,Terry Sejnowski,+ section references
2022-05-17T21:58:53+00:00,1088417007,1075232848,0,Jarszick,Terry Sejnowski,Gruber Neuroscience Prize 2022
2020-03-07T19:50:00+00:00,944425608,935233706,0,84.13.198.57,Terry Sejnowski,"/* Neural networks */  Hi. I am Tony Bell. I developed the infomax algorithm. I am correcting this sentence to represent the truth of the situation, as it gives the wrong impression that Terry was involved in the creation of this work. Any moderator or author who wishes to discuss this change, which I am perfectly entitled to make, may contact me at ""bellinterlab@protonmail.com'."
2022-03-04T16:48:24+00:00,1075232848,1073200494,0,UnitedStatesian,Terry Sejnowski,Undid revision 1073200494 by [[Special:Contributions/Encyclicscience|Encyclicscience]] ([[User talk:Encyclicscience|talk]]): those cats do not exist
2016-05-03T06:46:21+00:00,718388699,709503736,0,Larry Hockett,Terry Sejnowski,"removed [[Category:Princeton University alumni]]; added [[Category:Princeton University alumni, 1970–79]] using [[WP:HC|HotCat]]"
2016-09-04T19:04:47+00:00,737737404,734626367,0,198.202.70.61,Terry Sejnowski,
2021-01-25T01:10:23+00:00,1002563077,995580276,0,MainlyTwelve,Terry Sejnowski,added [[Category:Salk Institute for Biological Studies people]] using [[WP:HC|HotCat]]
2008-07-31T09:19:06+00:00,228982908,228974210,0,Intelligent Mr Toad,Thaksin Shinawatra,"copyedit last section, unwikify common nouns, remove unsourced opinions and two paragraphs which are totally obscure. this article is a mess and needs to be rewritten by someone with good English"
2010-12-01T02:40:50+00:00,399848609,387935171,0,Dimmer,Terry Sejnowski,/* External links */ Adding Sejnowski Lab Link
2022-09-24T04:48:11+00:00,1112003289,1111506340,0,Minorax,Thaksin Shinawatra,/* Foreign honours */vva
2012-12-29T18:24:37+00:00,530329184,529928482,0,RJFF,Thaksin Shinawatra,Undid revision 529928482 by [[Special:Contributions/Shwangtianyuan|Shwangtianyuan]] ([[User talk:Shwangtianyuan|talk]]): unsourced information in a BLP
2016-07-14T03:47:45+00:00,729725860,727858193,0,Wjjefferies,Thaksin Shinawatra,
2006-08-09T03:46:02+00:00,68539268,68538220,0,Joel s,Thaksin Shinawatra,"changed ""accused of finland plan"" to ""Finland Plan Controversy"""
2016-09-26T00:52:23+00:00,741198139,741009898,0,JJMC89 bot,Thaksin Shinawatra,Remove {{Guardian topic}} parameter(s) migrated to Wikidata per [[Special:Permalink/741149811#Requests|request]]) ([[Project:AWB|AWB]] (12089)
2019-01-22T04:06:53+00:00,879582090,879582008,0,GWT2,Thaksin Shinawatra,/* Economic policies */
2006-08-27T18:13:40+00:00,72224921,72128026,0,Patiwat,Thaksin Shinawatra,"/* Anti-drug policies */ citation doesn't state whether all 2,700 were innocent or guilty"
2010-03-31T06:46:37+00:00,353110289,352973364,0,Patiwat,Thaksin Shinawatra,
2015-04-17T22:46:07+00:00,656963738,656948547,0,2600:1006:B16F:48A2:14E8:C473:9B00:7111,The Chicks,more accurate reflection of cited source
2008-08-14T14:37:16+00:00,231910433,231910386,0,Closedmouth,The Chicks,Reverted edits by [[Special:Contributions/82.40.47.219|82.40.47.219]] to last version by Closedmouth ([[WP:HG|HG]])
2018-02-14T13:00:55+00:00,825624332,825622229,0,Karst,The Chicks,Reverted 1 edit by [[Special:Contributions/Thi|Thi]] ([[User talk:Thi|talk]]): WP:LEDE says that controversies should be mentioned. ([[WP:TW|TW]])
2016-03-03T16:07:03+00:00,708093915,708010011,0,206.176.21.28,The Chicks,
2015-08-28T19:54:13+00:00,678341685,678310851,0,2600:1006:B10D:3B1:14E8:C473:9B00:7111,The Chicks,Undid revision 678310851 by [[Special:Contributions/173.46.209.241|173.46.209.241]] ([[User talk:173.46.209.241|talk]])
2014-04-29T05:00:44+00:00,606283794,604641340,0,120.151.189.173,The Chicks,/* 2008–present: hiatus and Court Yard Hounds */
2022-05-31T11:15:53+00:00,1090790484,1090731583,0,Popcornfud,The Chicks,[[WP:THEBAND]]
2018-12-01T23:37:49+00:00,871565285,871557164,0,Caldorwards4,The Chicks,Reverted to revision 871328881 by [[Special:Contributions/Erpert|Erpert]] ([[User talk:Erpert|talk]]): Huh? ([[WP:TW|TW]])
2019-01-19T21:37:42+00:00,879227739,879227645,0,Christiancore,The Chicks,/* 2006–07: Taking the Long Way and  Shut Up and Sing */
2008-09-25T16:57:39+00:00,240935715,240933793,0,Amicon,The Chicks,Reverted edits by [[Special:Contributions/129.111.62.151|129.111.62.151]] ([[User talk:129.111.62.151|talk]]) to last version by Coolcoolmen16
2011-05-27T01:22:50+00:00,431106652,431106595,0,Tide rolls,The Chicks,Reverted edits by [[Special:Contributions/173.19.124.78|173.19.124.78]] ([[User talk:173.19.124.78|talk]]) to last revision by ClueBot NG ([[WP:HG|HG]])
2006-09-03T03:48:13+00:00,73514326,73371472,0,Landroo,The Chicks,spelling
2007-07-09T22:03:22+00:00,143592584,143543988,0,80.44.222.196,The Chicks,
2011-06-11T15:00:03+00:00,433728452,431197351,0,Lord Crayak,The Creeper (Jeepers Creepers),[[WP:AES|←]]Redirected page to [[Jeepers Creepers (2001 film)]]
2009-10-15T00:35:52+00:00,319924704,319829128,0,24.5.27.174,The Creeper (Jeepers Creepers),/* References */
2011-05-27T16:06:59+00:00,431197351,431151647,0,72.161.20.203,The Creeper (Jeepers Creepers),
2009-05-24T20:06:50+00:00,292077931,291842486,0,67.115.155.113,The Creeper (Jeepers Creepers),/* Abilities */
2010-03-28T19:11:47+00:00,352585235,350499704,0,Mungo Kitsch,The Discovery of America by Christopher Columbus,"Undid revision 325117166 by [[Special:Contributions/72.40.147.113|72.40.147.113]] ([[User talk:72.40.147.113|talk]]) Actually, signatures don't belong on articles."
2019-04-03T07:04:38+00:00,890740548,861916549,0,Cote d'Azur,The Discovery of America by Christopher Columbus,italics
2009-06-06T21:34:59+00:00,294856369,294856288,0,Tide rolls,The Discovery of America by Christopher Columbus,Reverted edits by [[Special:Contributions/97.91.129.171|97.91.129.171]] to last revision by ClueBot ([[WP:HG|HG]])
2011-12-05T07:22:08+00:00,464177011,455578230,0,Vagobot,The Discovery of America by Christopher Columbus,r2.7.2) (Robot: Adding [[be:Адкрыццё Амерыкі Хрыстафорам Калумбам]]
2018-05-24T08:55:38+00:00,842729511,822277879,0,145.52.133.87,The Discovery of America by Christopher Columbus,
2007-11-03T21:45:04+00:00,169023229,169022980,0,Open2universe,The Masters Apprentices,"/* Transitional period, 1967-68 */ link repair ([[Wikipedia:WikiProject Red Link Recovery|You can help!]]"
2007-07-11T07:30:11+00:00,143917157,131856230,0,Rm w a vu,The Masters Apprentices,/* External links */
2007-05-18T20:26:56+00:00,131856230,131235492,0,C777,The Masters Apprentices,Disambiguate [[Demo]] to [[Demo (music)]] using [[:en:Wikipedia:Tools/Navigation_popups|popups]]
2006-04-04T06:59:01+00:00,46884076,46883936,0,TigerShark,The Masters Apprentices,Reverted edits by [[Special:Contributions/203.217.3.121|203.217.3.121]] ([[User talk:203.217.3.121|talk]]) to last version by 220.239.77.250
2021-11-07T00:36:57+00:00,1053935559,1047012370,0,70.24.109.152,The Masters Apprentices,
2018-04-08T18:14:52+00:00,835435924,834295418,0,Josvebot,The Prodigy,v1.43b - [[WP:WCW]] project (Unicode control characters)
2009-01-07T19:29:45+00:00,262586954,262586693,0,89.125.189.47,The Prodigy,"/* ""Smack My Bitch Up"" controversy (USA) */"
2016-07-18T05:57:59+00:00,730311202,730245802,0,Robvanvee,The Prodigy,/* The Day Is My Enemy and The Fat of the Land anniversary (2010–present) */ Unsourced
2006-11-28T15:46:05+00:00,90675439,90540422,0,Mightyrearranger,The Prodigy,
2014-03-22T23:26:35+00:00,600801654,600393383,0,78.144.85.126,The Prodigy,/* Members */
2017-06-29T10:29:29+00:00,788082202,788081765,0,Zawl,The Prodigy,[[WP:SPLIT|Split]] from [[The Prodigy]] to [[List of awards and nominations received by The Prodigy]]
2022-07-31T17:01:14+00:00,1101553143,1101194464,0,LowSelfEstidle,The Prodigy,
2017-09-29T21:35:06+00:00,803005442,802974450,0,LowSelfEstidle,The Prodigy,/* History */
2017-10-26T15:09:31+00:00,807200893,806907904,0,86.152.42.28,The Prodigy,/* Members */
2007-08-31T17:25:38+00:00,154846492,154845729,0,87.74.65.75,The Prodigy,/* Former live members */
2015-06-14T21:17:11+00:00,666958032,582939729,0,Epeefleche,The Transformation of the World into Music,Added {{[[Template:refimprove|refimprove]]}} tag to article ([[WP:TW|TW]])
2012-05-11T18:51:51+00:00,492053583,438740811,0,Dawynn,The Transformation of the World into Music,/* External links */
2008-11-26T04:34:29+00:00,254164440,157434838,0,Tryptofeng,The Transformation of the World into Music,
2020-05-30T01:01:52+00:00,959676888,919500142,0,Sc2353,The Transformation of the World into Music,removed [[Category:1990s documentary films]]; added [[Category:1994 documentary films]] using [[WP:HC|HotCat]]
2014-04-23T15:15:51+00:00,605465441,591043215,0,GrahamHardy,The Willow Tree (novel),tidy infobox
2018-08-18T16:34:54+00:00,855480351,837452887,0,Uanfala,The Willow Tree (novel),/* top */ no need for hatnote
2009-07-06T12:39:54+00:00,300586215,280385642,0,76.105.157.77,The Willow Tree (novel),/* Plot summary */
2008-12-21T18:08:56+00:00,259377465,259377431,0,Teatreez,The Wonderful Horrible Life of Leni Riefenstahl,/* Reception */ wikify
2007-10-27T10:21:32+00:00,167405456,160009054,0,77.250.185.226,The Wonderful Horrible Life of Leni Riefenstahl,
2008-02-12T12:18:52+00:00,190883106,190882775,0,Stefanomione,The Wonderful Horrible Life of Leni Riefenstahl,refine category
2011-04-08T15:31:14+00:00,423032848,420141794,0,Ripchip Bot,The Wonderful Horrible Life of Leni Riefenstahl,r2.7.1) (robot Adding: [[it:La forza delle immagini]]
2010-12-01T18:32:03+00:00,399964882,399964690,0,69.143.50.61,The Wonderful Horrible Life of Leni Riefenstahl,
2006-05-31T18:51:21+00:00,56176333,56047461,0,Not Sure,The Wonderful Horrible Life of Leni Riefenstahl,"spelling and removed ""possible"""
2009-01-27T11:16:44+00:00,266727102,247656721,0,131.111.243.37,Tim Lopes (journalist),
2015-11-08T21:06:55+00:00,689691478,681835635,0,Wieralee,Tim Lopes (journalist),([[c:GR|GR]]) [[c:COM:FR|File renamed]]: [[File:Trofeu.jpg]] → [[File:Elias Maluco na Polícia Civil.jpg]] [[c:COM:FR#reasons|File renaming criterion #2]]: To change from a meaningless or ambiguous name to a name that describes what the image displays.
2012-07-30T07:39:11+00:00,504898144,504890141,0,Evenrød,Tim Lopes (journalist),Addtl text; refs
2011-02-02T01:11:10+00:00,411489004,392211429,0,Jahoe,Transmission Voie-Machine,
2015-12-27T16:06:58+00:00,697009626,693940394,0,Ghiraddje,Transmission Voie-Machine,"/* LGV Nord */ The reference doesn't appear to mention ""paramitarisation""; switching to correct spelling"
2016-09-04T12:59:24+00:00,737692239,715884903,0,Eumolpo,Transmission Voie-Machine,orthographic
2007-01-03T22:04:00+00:00,98268559,96725563,0,Signalhead,Transmission Voie-Machine,/* Other signalling systems */ Fix wikilink to Train Protection & Warning System
2013-01-26T18:14:55+00:00,535018611,527994959,0,Keith D,Transmission Voie-Machine,clean up using [[Project:AWB|AWB]]
2009-08-24T19:31:33+00:00,309834641,307957075,0,86.147.253.115,Transmission Voie-Machine,changed 270 km/h to 220 km/h
2011-10-07T12:47:37+00:00,454381564,451494786,0,71.37.235.246,United States Note,change quotation
2013-06-03T05:06:13+00:00,558080017,555910545,0,Godot13,United States Note,Added new--Category:Article Feedback 5
2016-11-13T01:55:05+00:00,749206159,740707744,0,Jdaloner,United States Note,"Moved this from ""Paper money of the United States"" category to its ""Banknotes of the United States"" subcategory. Updated navbox transclusion."
2021-09-26T11:55:46+00:00,1046580782,1046133476,0,Bkell,United States Note,"fix second obligation: wording (redeemable → receivable) from [[:File:US-$1-LT-1862-Fr-16c.jpg]], [[:File:US-$2-LT-1862-Fr-41.jpg]], [[:File:US-$10-LT-1863-Fr-95b.jpg]], [[:File:US-$20-LT-1863-Fr-126b.jpg]], [[:File:US-$100-LT-1863-Fr-167.jpg]], [[:File:US-$500-LT-1863-Fr-183c.jpg]], [[:File:US-$1000-LT-1863-Fr-186e.jpg]]; capitalization based on [[:File:US-$1-LT-1869-Fr-18.jpg]], [[:File:US-$2-LT-1862-Fr-41.jpg]]"
2020-08-25T22:10:59+00:00,974938522,974288644,0,BrayLockBoy,United States Note,
2008-02-26T19:07:38+00:00,194225369,193442959,0,167.206.160.18,United States Note,[[WP:UNDO|Undid]] revision 193442959 by [[Special:Contributions/Phirazo|Phirazo]] ([[User talk:Phirazo|talk]])
2018-01-11T18:34:04+00:00,819867477,818004049,0,73.49.106.27,United States Note,Corrected the quotation used on the reverse of the notes.
2006-03-29T17:57:40+00:00,46037816,0,0,Mushroom,User talk:Byelf2007,welcome to Wikipedia!
2008-05-01T21:38:01+00:00,209554520,204746706,0,130.166.115.120,User talk:Byelf2007,
2009-07-31T11:26:58+00:00,305259780,305187609,0,Dan Dassow,User talk:Cameron Scott,/* Thanks re: Up in the Air (film) */ new section
2016-02-29T17:13:50+00:00,707576571,698472255,0,Koustav Halder,User talk:Cameron Scott,/* Jack Reacher (Accquaintances) */ new section
2009-07-01T16:14:50+00:00,299714413,299702534,0,Erikeltic,User talk:Cameron Scott,/* Thanks! */ new section
2009-10-05T02:03:38+00:00,317960014,317857375,0,Angel Clinton,User talk:Cameron Scott,/* Beauty pageant */ new section
2008-04-07T19:54:57+00:00,204056578,203205095,0,Jgui~enwiki,User talk:Carolmooredc,/* Involvement with the Jewish lobby article */
2017-07-26T12:20:35+00:00,792420697,792420134,0,91.125.81.13,User talk:Carolmooredc,/* Talk page protection */
2010-02-24T02:05:09+00:00,346008915,345913711,0,Okip,User talk:Carolmooredc,note
2009-08-17T01:42:03+00:00,308399232,308365158,0,Anthon.Eff,User talk:Carolmooredc,"/* Thomas H. Greco, Jr. */"
2006-06-14T13:41:47+00:00,58574981,58570677,0,Harry Wood,User talk:Carolmooredc,explaining moving pages etc
2012-01-17T18:57:00+00:00,471907795,471907716,0,98.221.90.11,User talk:Chemicalinterest,/* Perchloric Acid */
2013-11-27T18:09:23+00:00,583557565,471907795,0,Kelly,User talk:Chemicalinterest,Notification: listing at [[WP:FFD|files for deletion]] of [[File:Chemicalinterest.JPG]]. ([[WP:TW|TW]])
2010-02-28T03:24:04+00:00,346811138,346679640,0,Asdfg12345,User talk:Coren,/* Brief note */ new section
2015-10-21T01:33:31+00:00,686745140,686188965,0,Oiyarbepsy,User talk:Coren,/* Deletionpedia */ new section
2010-03-03T11:18:09+00:00,347490783,347477938,0,Coren,User talk:Coren,/* I don't know if you should have said that in the deletion nomination */
2005-10-07T06:13:48+00:00,24954548,24954363,0,Agriculture,User talk:Coren,/* Removing Boilerplate Messages */
2011-06-01T13:37:02+00:00,431998318,431997195,0,MLauba,User talk:Coren,/* POM Wonderful Presents: The Greatest Movie Ever Sold */ resp
2017-04-14T15:13:14+00:00,775384505,775154180,0,Gnom,User talk:Coren,/* Please support the Sustainability Initiative! */ new section
2007-01-14T15:02:17+00:00,100662975,50746988,0,SlaveToTheWage,User talk:Coren,invite  using [[Project:AWB|AWB]]
2006-04-29T15:28:58+00:00,50746988,50412518,0,SuggestBot,User talk:Coren,SuggestBot recommends these articles...
2018-11-09T07:43:48+00:00,867988490,867149839,0,Gerda Arendt,User talk:Coren,/* Today's Wikipedian 10 years ago */ new section
2011-03-18T18:59:50+00:00,419503593,417879886,0,Gscshoyru,User talk:Darkstar1st,"General note: Page blanking, removal of content on [[Tea Party movement]]. ([[WP:TW|TW]])"
2014-04-08T06:08:11+00:00,603263522,581881907,0,BracketBot,User talk:Darkstar1st,[[WP:Bots|Bot]]: Notice of potential markup breaking
2015-08-14T21:04:58+00:00,676124144,664735017,0,Jimjilin,User talk:Darkstar1st,/* dems distrupting tea party page */
2010-10-22T15:37:57+00:00,392232175,392232089,0,Legin-gross-drawkcab,User talk:DickClarkMises,
2009-04-24T05:49:47+00:00,285804572,283121429,0,BJBot,User talk:DickClarkMises,"[[User:BJBot|BJBot]], [[File:Kel-tec RFB.jpg]] is going to be deleted"
2005-10-17T16:16:44+00:00,25748284,25064418,0,Rogue 9,User talk:DickClarkMises,
2007-07-15T06:58:25+00:00,144750933,144124036,0,Holly Cheng,User talk:DickClarkMises,The fair use image you uploaded is replaceable by a free one.
2009-07-31T01:29:30+00:00,305190788,302103460,0,Agradman,User talk:DickClarkMises,"invitation to [[WP:Hornbook]], a new task force for law students"
2011-11-02T06:21:14+00:00,458595471,457149332,0,Skier Dude,User talk:DickClarkMises,Notification: tagging for deletion of [[File:Acton detroit conference.jpg]]. ([[WP:TW|TW]])
2009-05-27T02:53:21+00:00,292584982,291537324,0,TachyonJack,User talk:DickClarkMises,
2009-11-30T16:12:24+00:00,328820213,320316591,0,Gadget850,User talk:DickClarkMises,WikiProject Scouting elections using [[Project:AWB]]
2010-07-02T18:32:19+00:00,371417884,371409464,0,Alin (WMF),User talk:DickClarkMises,/* Wikipedia Campus Ambassador at Harvard */ new section
2006-04-27T11:29:40+00:00,50406852,49804821,0,Gantlord,User talk:Gantlord,
2008-04-23T14:48:10+00:00,207616336,207612584,0,Lazulilasher,User talk:Gregalton,piednoir
2014-09-24T02:12:34+00:00,626845290,624679513,0,Wgolf,User talk:John Quiggin,Notifying author of deletion nomination for [[Alex Mas]]
2009-10-11T12:20:36+00:00,319215894,318000018,0,MediationBot1,User talk:John Quiggin,A request for mediation which you are a party to has been accepted
2008-05-10T11:37:20+00:00,211446515,210473620,0,PranksterTurtle,User talk:Lagrandebanquesucre,Notification: Speedy deletion nomination of [[Ellen Hodgson Brown]]. ([[WP:TW|TW]])
2015-06-30T07:30:55+00:00,669300053,669298528,0,Anythingyouwant,User talk:Lawrencekhoo,"/* Fringe */ Never mind, we're discussing at article talk page."
2010-04-14T01:20:03+00:00,355871954,354454309,0,Justa Punk,User talk:Luna Santin,"/* A check user, please? */ new section"
2020-09-17T03:03:43+00:00,978815863,975570613,0,Steve M,User talk:Luna Santin,/* You were one of the Wikipedians.. */ new section
2007-12-25T17:04:47+00:00,180120896,180093687,0,MrWhich,User talk:Luna Santin,"/* Thank, Luna */ new section"
2009-06-11T19:39:12+00:00,295839106,295839043,0,Pablo X,User talk:Luna Santin,/* The One & Only Fools and Horses */ wtf? -dupe post
2010-02-06T03:52:59+00:00,342231467,342168402,0,Khirurg,User talk:Luna Santin,/* Blocked IP editor 74.59.88.57 is back */ new section
2006-08-15T12:29:32+00:00,69790581,69790533,0,Samir,User talk:Luna Santin,Reverted edits by [[Special:Contributions/212.74.13.202|212.74.13.202]] ([[User talk:212.74.13.202|talk]]) to last version by Colin Keigher
2008-06-09T16:21:44+00:00,218197883,218194222,0,JeffJ,User talk:NJGW/5,/* Edmund Ironside */
2022-02-08T22:25:33+00:00,1070718470,224588316,0,Zxcvbnm,User talk:RubyJester,Notification: [[Wikipedia:Categories for discussion/Log/2022 February 8#Category:Futuristic racing games|listing]] of [[:Category:Futuristic racing games]] at [[WP:Categories for discussion]].
2012-02-15T20:14:35+00:00,477063690,476772961,0,Yjune.sah,User talk:Satori Son,
2008-02-18T03:52:00+00:00,192220531,191936721,0,Spencer,User talk:Satori Son,rvv vand
2012-01-12T21:04:35+00:00,471029681,470858470,0,Spleodrach,User talk:Satori Son,/* Conor Lenihan */ new section
2009-12-13T05:33:41+00:00,331383344,330787215,0,ZooFari,User talk:Satori Son,Notification: Deletion of [[File:B&W_Nautilus.JPG]]. using	[[WP:TW|TW]]
2016-07-27T09:44:01+00:00,731756250,731756137,0,Chiomaamadi,User talk:Satori Son,/* Request to recreate the page KENNETH UWADI */
2010-06-20T22:39:43+00:00,369251389,369225053,0,Fetchcomms,User talk:Skomorokh,Reverted to revision 360711180 by [[Special:Contributions/RL0919|RL0919]]; restore redirect. ([[WP:TW|TW]])
2016-11-29T01:03:08+00:00,752014306,738171688,0,Champion,User talk:Skomorokh,Notification: listing at [[WP:RFD|redirects for discussion]] of [[Obama regime]]. ([[WP:TW|TW]])
2018-06-24T01:46:26+00:00,847261944,835408248,0,MinnesotanUser,User talk:Skomorokh,courtesy notice of deletion proposal.
2021-04-17T22:47:36+00:00,1018404151,1015087371,0,Mover of molehills,User talk:Skomorokh,Notification: [[Wikipedia:Redirects for discussion/Log/2021 April 17#Wikipedia:MANDARINS|listing]] of [[:Wikipedia:MANDARINS]] at [[WP:Redirects for discussion]].
2013-05-24T01:27:35+00:00,556515092,548137681,0,Namib dessert,User talk:Skomorokh,Notification: listing at [[WP:AFD|articles for deletion]] of [[Era Vulgaris editions]]. ([[WP:TW|TW]])
2011-02-22T19:07:57+00:00,415364482,415188889,0,Sross (Public Policy),User talk:Skomorokh,/* groups of students in need of mentors */ new section
2013-03-09T00:57:59+00:00,542942248,541820836,0,PartTimeGnome,User talk:Skomorokh,/* Jewellery store redirects */ new section
2009-05-05T00:30:32+00:00,287957788,287956873,0,Mattwilson0501,User talk:TastyPoutine,
2008-12-19T19:22:57+00:00,259021952,258901807,0,PRRfan,User talk:TastyPoutine,punc; cheers!
2006-03-11T05:50:29+00:00,43255198,43255170,0,Scaife,User talk:TastyPoutine,/* Charlie Dent */ format
2010-07-14T12:50:58+00:00,373435035,355946468,0,Collect,User talk:Vision Thing/Archive4,/* WP:Articles_for_deletion/Mass_killings_under_Communist_regimes_(3rd_nomination)#Mass_killings_under_Communist_regimes exists */ new section
2012-12-08T13:38:29+00:00,527020035,525520719,0,MadmanBot,User talk:Xerographica,Notifying user of possible copyvio on Other people&#039;s money (experienced/current)
2011-10-21T19:33:23+00:00,456723110,435221312,0,SMcCandlish,User talk:Zenwhat,MfD notice
2020-02-20T06:01:44+00:00,941715389,848295526,0,Jmg38,User talk:Zenwhat,
2013-03-12T20:31:07+00:00,543689329,486186399,0,Liberalufp,User talk:Zenwhat,Notification: speedy deletion nomination of [[Wikipedia:Special log]]. ([[WP:TW|TW]])
2009-01-27T20:09:00+00:00,266810007,240337804,0,Zen Mind,User talk:Zenwhat,/* SubPage Contibs */
2014-01-03T16:08:21+00:00,588993013,543689329,0,Ottawahitech,User talk:Zenwhat,
2009-03-19T12:25:55+00:00,278316744,278304005,0,Ryan Postlethwaite,User:BucklingUnderTheDebtDeathMarch,sock
2015-01-21T04:59:53+00:00,643475837,253299970,0,Oiyarbepsy,User:Karmaisking,long term abuse file
2016-06-18T16:14:15+00:00,725899930,718488622,0,Midnightblueowl,V. Gordon Childe,Prose edit to lede.
2012-10-07T13:47:15+00:00,516475769,516472320,0,Midnightblueowl,V. Gordon Childe,/* Archaeological thought */
2011-05-09T14:38:44+00:00,428254273,427391228,0,Midnightblueowl,V. Gordon Childe,/* Bibliography */
2014-05-27T08:34:16+00:00,610319417,610302982,0,Jack Upland,V. Gordon Childe,/* Early career in Australia: 1918–1921 */
2015-03-02T21:00:30+00:00,649587477,646521914,0,149.152.61.70,V. Gordon Childe,spelling correction
2006-09-18T04:02:08+00:00,76351625,76349910,0,Stephen Bain,V. Gordon Childe,Reverted edits by [[Special:Contributions/Thebainer|Thebainer]] ([[User talk:Thebainer|talk]]) to last version by 35.8.93.187
2019-09-10T09:30:23+00:00,914949658,914935527,0,Midnightblueowl,V. Gordon Childe,"Restoring FA-rated version of the lede, thereby reverting recent change. Suicide was not recorded at the time by the coroner but biographers agree the evidence for suicide was clear."
2011-01-01T17:18:51+00:00,405342247,405341977,0,AMDAG,V. Gordon Childe,/* Further reading */
2020-06-16T08:34:34+00:00,962837142,958515066,0,82.1.44.229,V. Gordon Childe,"/* Institute of Archaeology, London: 1946–1956 */ corrected ""CPBG"" to ""CPGB"""
2014-11-13T00:18:22+00:00,633598181,633596410,0,Midnightblueowl,V. Gordon Childe,/* Processual and post-processual archaeology */ made more accurate alteration
2021-11-30T05:18:53+00:00,1057878517,1057068205,0,Brockparkerrock,Vada (food),/* Varieties */ disk is the right term to cite Vada
2006-01-29T03:23:25+00:00,37162910,35717497,0,DotShell,Vada (food),"/* Other Varieties of Vada */ added dahi vada, wikification, minor corrections"
2018-09-15T22:47:31+00:00,859728238,854782570,0,Sangitha rani111,Vada (food),south india
2013-05-31T18:06:06+00:00,557716986,557063396,0,Vis M,Vada (food),Fix
2011-05-25T19:11:41+00:00,430893090,430126820,0,2.102.165.251,Vada (food),
2017-04-10T10:41:27+00:00,774735447,770953287,0,120.144.167.194,Vada (food),Added countries that eat this dish.
2015-07-02T08:07:09+00:00,669602866,669306788,0,Ekdalian,Vaishya,Undid revision 669306788 by [[Special:Contributions/113.199.255.171|113.199.255.171]] ([[User talk:113.199.255.171|talk]]): Refer to the talk page
2008-10-24T15:33:41+00:00,247398088,245309005,0,59.96.206.198,Vaishya,/* Vaishya Varna */
2011-02-02T16:37:31+00:00,411601253,410797463,0,216.100.95.50,Vaishya,
2005-10-31T12:27:34+00:00,26970288,26970003,0,195.92.40.49,Vaishya,/* See also */
2010-04-08T10:11:25+00:00,354718669,354718207,0,59.182.3.195,Vaishya,
2007-05-27T08:22:18+00:00,133814001,131167252,0,Dishant55555,Vaishya,revert vandalism and fixing
2005-10-19T09:07:07+00:00,25904947,25904908,0,Srini81,Vellore,
2021-02-23T03:23:33+00:00,1008400238,1008043530,0,Zeex.rice,Vellore,neut. check
2010-02-27T06:01:22+00:00,346639611,346639425,0,122.164.82.238,Vellore,/* Chennai-Bangalore-Mumbai Industrial Corridor */
2018-01-07T12:51:18+00:00,819102662,819102424,0,Kbssomnath,Vellore,
2021-01-23T14:28:59+00:00,1002243870,998122731,0,Walrus Ji,Vellore,/* top */updated option for India map
2009-08-30T08:10:35+00:00,310855404,310721899,0,59.92.52.113,Vellore,/* Arts and Science */
2020-02-26T18:34:53+00:00,942768399,942758183,0,Starkenborgher,Vellore,Links to zone names
2006-07-15T20:18:08+00:00,64005262,62831274,0,Erebus555,Vellore,Corrected misspellings.
2011-08-09T09:00:01+00:00,443837740,443837622,0,Amarannu10,Vellore,/* Chemical Industries */
2008-01-08T00:07:17+00:00,182846578,164958124,0,Zwobot,Vernon Benjamin Mountcastle,robot  Adding: [[de:Vernon Mountcastle]]
2007-06-29T20:23:46+00:00,141464290,138935158,0,140.247.94.39,Vernon Benjamin Mountcastle,
2014-04-08T17:12:04+00:00,603327543,593278427,0,Waacstats,Vernon Benjamin Mountcastle,/* External links */add persondata short description using [[Project:AWB|AWB]]
2006-07-21T19:29:01+00:00,65083527,64880026,0,Rsabbatini,Vernon Benjamin Mountcastle,"wikified, reorganized"
2013-08-19T17:54:26+00:00,569254823,538200551,0,Dudley Miles,"Victoria Park, Barnet",Added commonscat
2015-04-21T06:46:39+00:00,657439511,569254823,0,A bit iffy,"Victoria Park, Barnet",moved photo upwards
2009-10-02T20:09:52+00:00,317522815,314732549,0,Grim23,"Victoria Park, Barnet",removed dubious uncited text
2007-07-04T11:23:14+00:00,142439353,142439269,0,86.29.174.165,"Victoria Park, Barnet",/* External links */
2020-05-23T21:12:39+00:00,958446272,958445968,0,Dudley Miles,"Victoria Park, Barnet",Undid revision 958445968 by [[Special:Contributions/2A02:C7F:364C:FE00:FCC7:B871:BC25:5923|2A02:C7F:364C:FE00:FCC7:B871:BC25:5923]] ([[User talk:2A02:C7F:364C:FE00:FCC7:B871:BC25:5923|talk]])Please find citation first
2015-10-25T22:40:03+00:00,687491655,687491153,0,Dudley Miles,"Victoria Park, Barnet",
2022-02-09T10:56:49+00:00,1070806964,1029350908,0,TrangaBellam,W. Montgomery Watt,/* Criticism */ ed out non-RS
2008-08-01T20:17:24+00:00,229287739,228343098,0,Mhockey,W. Montgomery Watt,/* External links */ add cat
2014-12-20T00:50:58+00:00,638849581,635627352,0,Northamerica1000,W. Montgomery Watt,/* External links */ De-linked Edinburgh Middle East Report. Deleted article.
2020-05-01T00:11:38+00:00,954159471,946446059,0,FeanorStar7,W. Montgomery Watt,/* External links */ align sort tag with article title
2013-09-15T20:00:15+00:00,573059743,561491788,0,ArmbrustBot,Wardour Street,"/* External links */re-categorisation per [[WP:CFDS|CFDS]], replaced: Category:Streets in Westminster → Category:Streets in the City of Westminster using [[Project:AWB|AWB]]"
2021-07-27T14:28:10+00:00,1035761911,1035758486,0,2.25.130.123,Wardour Street,/* 21st century */
2022-06-10T08:42:59+00:00,1092439619,1092439373,0,Philip Cross,Wardour Street,/* 20th century */ merged passages
2021-05-07T06:34:53+00:00,1021886004,1018557532,0,2003:A:26D:AB91:9548:B78C:27B1:CE7D,Wardour Street,/* 20th century */
2007-01-12T00:59:14+00:00,100121878,99084507,0,Zefrog,Wardour Street,
2010-02-13T19:08:35+00:00,343789489,336012713,0,68.175.71.181,Wardour Street,
2020-12-03T12:32:25+00:00,992086662,965191128,0,Harfarhs,Wardour Street,Improved phrasing and punctuation
2015-02-08T16:44:27+00:00,646206265,632249923,0,Rothorpe,Wardour Street,/* 20th century */
2018-07-27T15:40:08+00:00,852244396,850599255,0,Maczkopeti,Wardour Street,[[WP:RHOTIC]]
2017-06-01T06:14:20+00:00,783272841,781925859,0,Jkrn111,Werner Herzog,"His horror film ""Nosferatu the Vampyre"""
2016-09-09T16:11:13+00:00,738544810,737479750,0,82.4.24.86,Werner Herzog,
2007-09-09T19:38:26+00:00,156764938,156764821,0,71.184.159.190,Werner Herzog,Try harder to make it a link.
2009-10-25T15:41:12+00:00,321952103,321941259,0,Thumperward,Werner Herzog,Filling in 4 references using [[WP:REFLINKS|Reflinks]]
2011-05-19T16:04:21+00:00,429900711,429801598,0,Arcillaroja,Werner Herzog,Undid revision 429801598 by [[Special:Contributions/76.126.68.52|76.126.68.52]] ([[User talk:76.126.68.52|talk]]) vandalism
2016-05-02T14:32:43+00:00,718266202,717241429,0,Thorasin,Werner Herzog,/* Composers */
2006-12-16T23:02:45+00:00,94781455,94780832,0,A Train,Werner Herzog,/* Trivia */ removed trivia concerning grandfather - see [[Talk:Werner_Herzog#Trivia_section_clean-up]]
2016-01-27T03:29:29+00:00,701880104,701175820,0,Catsmoke,Werner Herzog,Italicized title of magazine
2014-03-25T06:32:09+00:00,601156486,591927367,0,Northamerica1000,Wertheim,"rw: * [[Wertheim (company)]], a company that manufactures [[vacuum cleaner]]s. Sort."
2005-09-14T11:06:21+00:00,23216430,23216336,0,Sheynhertz-Unbayg,Wertheim,
2012-01-09T07:34:04+00:00,470394844,442394862,0,SchreiberBike,Wertheim,"Added Wertheims from search results for ""intitle: Wertheim"""
2008-05-10T02:21:13+00:00,211386537,205732636,0,Thijs!bot,Wertheim,robot  Adding: [[pl:Wertheim]]
2017-08-17T20:35:10+00:00,795996667,780869639,0,Jfdwolff,Wertheim,/* See also */ add AC Werthem
2009-01-24T02:43:26+00:00,266042443,266038739,0,Bigkahuna nz,Wertheim,
2008-10-28T14:23:55+00:00,248196391,211386537,0,84.164.234.147,Wertheim,
2017-03-27T23:03:54+00:00,772549103,772506594,0,Nick-D,Westfield Sydney,Undid revision 772506594 by [[Special:Contributions/Herostratus|Herostratus]] ([[User talk:Herostratus|talk]]) closed as procedural keep
2008-05-13T17:42:43+00:00,212154910,210758957,0,Kbdankbot,Westfield Sydney,Robot - move category per [[WP:CFD|CFD]] [[Wikipedia:Categories for discussion/Log/2008 May 7|2008 May 7]]
2016-01-11T19:55:59+00:00,699346980,699346816,0,HILLMORTON-HS shepherdb,Westfield Sydney,
2018-03-29T13:11:23+00:00,833060308,832655641,0,Meganesia,Westfield Sydney,
2011-06-19T20:10:43+00:00,435147754,435141697,0,124.169.151.128,Westfield Sydney,/* External links */
2007-07-31T13:49:43+00:00,148269400,144362499,0,Thewinchester,Westfield Sydney,navbox
2008-05-03T10:41:11+00:00,209880651,209168293,0,121.219.113.170,What a Year,
2014-01-01T09:38:15+00:00,588640517,588640489,0,106.69.36.135,What a Year,
2012-10-29T07:38:15+00:00,520392681,507484632,0,Niceguyedc,What a Year,"[[:en:WP:CLEANER|WPCleaner]] v1.20 - Repaired 2 links to disambiguation page - [[WP:DPL|(You can help)]] - [[GEM]], [[Sunday Night]]"
2010-02-22T05:39:15+00:00,345608037,327286467,0,60.230.126.142,What a Year,
2008-12-12T05:43:08+00:00,257436133,256827859,0,Canis Lupus,What a Year,"clean up & rm red link image, removed Image:Mike meg article.jpg"
2009-08-07T05:04:02+00:00,306541974,306541748,0,203.35.82.136,What a Year,"/* After ""What A Year"" */"
2020-08-23T17:39:08+00:00,974553096,973455482,0,JJMC89 bot III,What a Year,Moving [[:Category:Nine Network shows]] to [[:Category:Nine Network original programming]] per [[Wikipedia:Categories for discussion/Log/2020 August 15#Television series and network original programming]]
2011-10-04T05:27:53+00:00,453840124,448109290,0,SteveBot,Wikipedia:Mediation Cabal/Cases/12 April 2011/Fractional-reserve banking,tweak
2019-10-02T22:56:01+00:00,919295801,919295733,0,SinisterLefty,Wikipedia:Reference desk/Miscellaneous,/* Swedish train tickets */
2006-04-30T03:53:29+00:00,50840060,50838795,0,Shadarian,Wikipedia:Reference desk/Miscellaneous,/* Staples */
2021-10-17T21:11:37+00:00,1050443293,1050414987,0,184.144.99.72,Wikipedia:Reference desk/Miscellaneous,/* Deletion of Old Account */
2014-08-02T09:56:04+00:00,619532520,619529869,0,Tevildo,Wikipedia:Reference desk/Miscellaneous,/* Walid Shoebat */
2021-11-28T00:52:27+00:00,1057500497,1057500044,0,MarnetteD,Wikipedia:Reference desk/Miscellaneous,rmv as there were no questions asked on this day
2019-07-21T09:29:38+00:00,907212367,907212309,0,81.147.142.33,Wikipedia:Reference desk/Miscellaneous,
2006-05-08T08:38:03+00:00,52112271,52112079,0,Dismas,Wikipedia:Reference desk/Miscellaneous,/* The elderly and savings theft */
2011-02-01T21:27:04+00:00,411450257,411449929,0,Mr.98,Wikipedia:Reference desk/Miscellaneous,/* Albert Einstein */
2009-01-23T11:03:22+00:00,265894779,265894726,0,Rixxin,Wikipedia:Reference desk/Miscellaneous,"/* How does one go from Roswell, New Mexico, into Mexico? */"
2019-09-21T13:01:12+00:00,916938888,916925452,0,SinisterLefty,Wikipedia:Reference desk/Science,/* Raising the freezing point of a water solution. */
2006-05-23T16:51:40+00:00,54734797,54734541,0,Plugwash,Wikipedia:Reference desk/Science,/* Airport X-Ray Exposure */
2017-10-02T10:56:24+00:00,803409707,803409146,0,Gandalf61,Wikipedia:Reference desk/Science,/* Mars in 2024 */  r
2008-08-03T05:08:17+00:00,229531510,229531463,0,Rename user vk7wbxku6o2fxupa,Wikipedia:Reference desk/Science,/* Pigs on the wing */ outdent
2015-08-30T22:44:03+00:00,678675498,678673774,0,Tevildo,Wikipedia:Reference desk/Science,/* Dealing with the polarity of a DC plug */
2007-07-18T10:58:56+00:00,145414649,145414398,0,Capuchin,Wikipedia:Reference desk/Science,/* oxygen enriched v. anti-oxidant */
2012-12-23T02:50:36+00:00,529384202,529383774,0,124.182.144.218,Wikipedia:Reference desk/Science,/* Wireless energy and magnetic field */
2020-02-05T18:07:51+00:00,939312663,939304298,0,OuroborosCobra,Wikipedia:Reference desk/Science,/* if the sun were hotter or colder - finding calculations/estimates */
2006-11-07T07:03:02+00:00,86226572,86225882,0,B00P,Wikipedia:Reference desk/Science,/* Kinsey Reports */
2016-08-11T12:31:37+00:00,733993061,733992173,0,StuRat,Wikipedia:Reference desk/Science,/* Number 80+ in Ancient Astronomy */
2006-07-10T17:50:00+00:00,63079246,63079149,0,Kjoonlee,Wikipedia:Reference desk/Science,/* can the fruit conduct electricity? */
2012-09-15T20:43:44+00:00,512730282,512729381,0,StuRat,Wikipedia:Reference desk/Science,/* does all the velocity increase come from the energy stored in air pressure when air is forced out of the lungs? */
2021-09-05T19:36:42+00:00,1042591806,1042583792,0,2.122.0.2,Wikipedia:Reference desk/Science,/* How much of Speed of light can be decreased until Universe go unstable? */
2019-09-21T10:06:32+00:00,916919970,916918682,0,Graeme Bartlett,Wikipedia:Reference desk/Science,/* Raising the freezing point of a water solution. */ up to 340K
2012-02-07T20:46:05+00:00,475639488,475638915,0,212.170.181.95,Wikipedia:Reference desk/Science,"/* Clenbuterol, doping or food poisoning */ new section"
2006-04-15T14:40:34+00:00,48570095,48565386,0,David Kernow,Wikipedia:Requested moves,/* [[15 April]] [[2006]] */ update
2011-10-01T15:35:15+00:00,453382860,453378825,0,Berean Hunter,Wikipedia:Requested moves,/* Current requests */ [[Glock pistol]] ==> [[Glock]]
2007-05-17T11:11:58+00:00,131513416,131513044,0,Stemonitis,Wikipedia:Requested moves,/* Uncontroversial proposals */ remove all - all done
2019-12-04T09:23:04+00:00,929207357,929207268,0,The Drover's Wife,Wikipedia:Requested moves,Reverted 1 edit by [[Special:Contributions/The Drover's Wife|The Drover's Wife]] ([[User talk:The Drover's Wife|talk]]) to last revision by Station1 ([[WP:TW|TW]])
2013-03-09T16:18:26+00:00,543040391,542987585,0,Apteva,Wikipedia:Requested moves,/* Current discussions */ bot working now
2012-05-04T07:40:23+00:00,490597688,490585665,0,Jafeluv,Wikipedia:Requested moves,/* Technical requests */ done
2011-06-04T06:02:08+00:00,432474100,432430701,0,Anthony Appleyard,Wikipedia:Requested moves,/* Current requests */ discuss 1
2006-04-26T03:29:06+00:00,50199498,50196634,0,Theshibboleth,Wikipedia:Requested moves,/* Current proposals */
2016-01-14T18:19:09+00:00,699825015,699822632,0,Jenks24,Wikipedia:Requested moves,Undid revision 699822632 by [[Special:Contributions/Coburnpharr04|Coburnpharr04]] ([[User talk:Coburnpharr04|talk]]) now submitted at [[WP:RM/TR]]
2021-07-28T12:14:52+00:00,1035920009,1035918921,0,Uanfala,Wikipedia:Requested moves,Undid revision 1035918921 by [[Special:Contributions/Tintor2|Tintor2]] ([[User talk:Tintor2|talk]]) hmm... did you mean to edit some other page?
2012-10-07T08:49:53+00:00,516445077,514842205,0,Taranet,Wikipedia:Requested moves,+[[fa:ویکی‌پدیا:تابلوی اعلانات مدیران/درخواست انتقال و ادغام]]
2011-11-17T06:46:27+00:00,461074669,461070433,0,Anthony Appleyard,Wikipedia:Requested moves,/* Technical requests */ done 1
2007-02-01T17:18:48+00:00,104876259,104852999,0,Gene Nygaard,Wikipedia:Requested moves,/* [[1 February]] [[2007]] */
2008-03-25T23:09:38+00:00,200924056,200922646,0,Living Concrete,Wikipedia:Requested moves,/* Incomplete and contested proposals */ Needs admin attention.
2021-12-18T14:16:44+00:00,1060918398,1056492804,0,ElHef,Wikipedia:Requested moves,/* top */ fix redirect per talk req
2007-02-09T08:06:22+00:00,106792608,106790117,0,John Vandenberg,Wikipedia:Requested moves,/* Other proposals */ [[JEL]]
2010-12-14T00:12:51+00:00,402239929,402202854,0,AmandaNP,Wikipedia:Sockpuppet investigations/Karmaisking,Archiving case to [[Wikipedia:Sockpuppet investigations/Karmaisking/Archive]]
2018-07-08T21:13:29+00:00,849416342,849030673,0,Sro23,Wikipedia:Sockpuppet investigations/Karmaisking,Archiving case to [[Wikipedia:Sockpuppet investigations/Karmaisking/Archive]]
2012-08-19T14:25:02+00:00,508135677,507852030,0,Smjwalsh,William Paterson (banker),
2010-09-15T15:32:49+00:00,384996599,384996467,0,79.79.219.227,William Paterson (banker),/* Career */
2018-09-18T04:51:47+00:00,860074813,848398510,0,Newm30,William Paterson (banker),added [[Category:Burials at Sweetheart Abbey]] using [[WP:HC|HotCat]]
2018-07-01T17:31:31+00:00,848398510,842624811,0,Mndata,William Paterson (banker),/* See also */Improved link
2013-01-06T17:46:54+00:00,531648237,531642471,0,Richigi,William Paterson (banker),"/* Darien scheme */ removed contradict tag, added convenience link to ref"
2021-04-20T19:17:04+00:00,1018953429,1014487617,0,Sandy Fortingal,William Paterson (banker),/* Darien scheme */
2005-06-27T04:42:24+00:00,16847242,15897060,0,63.162.72.139,Woodstock Pub,
2017-05-25T18:39:00+00:00,782242867,782237507,0,Heroeswithmetaphors,Xiaozi,[[Category:Economic history of the People's Republic of China]] [[Category:Economy of China]]
2018-03-25T06:45:59+00:00,832317463,809904949,0,Dokurrat,Xiaozi,Linguistic boundary
2021-01-20T05:30:58+00:00,1001553544,999579747,0,Quark1005,Xiaozi,
2008-07-30T12:09:18+00:00,228795276,228795223,0,Dakinijones,Xiaozi,"Quick-adding category ""Social class subcultures"" (using [[WP:HOTCAT|HotCat]])"
2009-05-26T19:01:11+00:00,292499075,269573863,0,139.173.54.11,Xiaozi,
2011-11-27T09:46:21+00:00,462710542,407449762,0,Oleg-ch,Yeoville,/* 1970s */
2009-01-29T17:39:14+00:00,267225503,241377540,0,81.149.245.177,Yeoville,
2015-01-10T00:10:04+00:00,641802782,641802709,0,98.248.129.236,Yeoville,/* 1980s */
2018-05-12T03:48:16+00:00,840783046,809711000,0,Ira Leviton,Yeoville,Deleted 'ironically' - see [[Wikipedia:Manual_of_Style#Instructional_and_presumptuous_language]].
2009-09-25T03:36:51+00:00,316057031,312823529,0,75.159.8.179,Yeoville,
2017-11-10T22:15:01+00:00,809711000,799731556,0,41.13.24.251,Yeoville,
2011-01-12T09:57:55+00:00,407449762,383719362,0,220.130.153.7,Yeoville,/* 1980s */
2013-01-02T08:16:54+00:00,530886346,526514948,0,Clarityfiend,Yeoville,+hatnote
2006-05-15T22:22:02+00:00,53400494,52978880,0,137.82.22.86,Zoom Airlines,replacing advert and verbatim text from company website
2015-02-15T12:38:13+00:00,647238748,647238201,0,MilborneOne,Zoom Airlines,tweak
2021-02-28T08:58:02+00:00,1009386177,995267554,0,Mandarax,Zoom Airlines,Correct dash
2010-08-05T15:34:53+00:00,377316159,372628164,0,88.104.207.162,Zoom Airlines,
2009-09-30T17:45:54+00:00,317124923,303281814,0,WhisperToMe,Zoom Airlines,Archive
2020-05-15T21:47:03+00:00,956890415,950417211,0,AirbusA220,Zoom Airlines,/* Re-launch as XPO Airlines */ changed  August 2018 to May 2020
2011-11-07T09:48:38+00:00,459432980,456403106,0,Russavia,Zoom Airlines,File:Zoom Airlines Airbus A320 Davies-2.jpg
2012-04-20T06:30:55+00:00,488294357,482442531,0,Tim!,Zoom Airlines,added [[Category:2002 establishments in Canada]] using [[WP:HC|HotCat]]
2022-07-15T09:34:29+00:00,1098333818,1088974293,0,47.59.13.30,Zoom Airlines,/* External links */
2011-02-13T06:59:27+00:00,413641777,413641735,0,WhisperToMe,Zoom Airlines,
