timestamp,revid,parentid,sock,user,page,message
2019-11-06T18:38:22+00:00,924916611,924916541,1,QueensDivision,London Conservatives,Undid revision 924916541 by [[Special:Contributions/QueensDivision|QueensDivision]] ([[User talk:QueensDivision|talk]])
2019-11-06T18:37:37+00:00,924916541,904697248,1,QueensDivision,London Conservatives,
2019-11-06T18:37:06+00:00,924916463,924787164,1,QueensDivision,UK Independence Party,
2019-11-05T20:09:10+00:00,924761666,924761562,1,QueensDivision,Democratic-Republican Party,Fixed typo
2019-11-05T20:08:31+00:00,924761562,924761416,1,QueensDivision,Democratic-Republican Party,
2019-11-05T20:07:39+00:00,924761416,924501087,1,QueensDivision,Democratic-Republican Party,
2019-11-05T20:02:35+00:00,924760550,923967287,1,QueensDivision,Alberta New Democratic Party,
2019-11-05T19:59:04+00:00,924759938,908841163,1,QueensDivision,Wildrose Party of Alberta,
2019-11-05T19:58:20+00:00,924759810,924759770,1,QueensDivision,Wildrose Party,
2019-11-05T19:58:04+00:00,924759770,923991186,1,QueensDivision,Wildrose Party,
2019-11-05T03:21:46+00:00,924652426,912184269,1,QueensDivision,Communist Party – Alberta,
2019-11-05T03:19:02+00:00,924652079,924619452,1,QueensDivision,Neoconservatism,/* Antisemitism and dual loyalty */ Use single quotes when quoting inside a quote.
2019-11-05T03:16:38+00:00,924651783,923681786,1,QueensDivision,United Conservative Party,
2019-11-04T20:50:06+00:00,924599529,914336553,1,QueensDivision,Liberal Republican Party (United States),
2019-11-04T04:30:46+00:00,924488001,924214242,1,QueensDivision,Fatherland Front (Austria),
2019-11-04T04:00:35+00:00,924485285,923918723,1,QueensDivision,Adam Smith,
2019-11-04T03:59:00+00:00,924485117,923093292,1,QueensDivision,Ludwig von Mises,
2019-11-04T03:57:32+00:00,924484970,923811118,1,QueensDivision,Murray Rothbard,"Cleaned up ""Influences"""
2019-11-03T05:18:59+00:00,924330618,924309778,1,QueensDivision,Canadian Alliance,added source
2019-11-03T05:17:51+00:00,924330514,924312461,1,QueensDivision,Reform Party of Canada,
2019-11-03T02:27:22+00:00,924312809,924307990,1,QueensDivision,Neoconservatism,
2019-11-03T02:27:13+00:00,924312794,923371036,1,QueensDivision,Douglas Murray (author),
2019-11-03T02:24:22+00:00,924312461,924311740,1,QueensDivision,Reform Party of Canada,
2019-11-03T02:19:50+00:00,924311943,923817956,1,QueensDivision,Landtag of Thuringia,
2019-11-03T02:17:39+00:00,924311740,922348468,1,QueensDivision,Reform Party of Canada,
2019-11-03T02:00:38+00:00,924309778,924000954,1,QueensDivision,Canadian Alliance,
2019-11-03T01:45:51+00:00,924307990,924037782,1,QueensDivision,Neoconservatism,/* Public figures */  Returned picture which was removed without reason.
2019-10-22T05:34:25+00:00,922449554,0,1,QueensDivision,"Canada general election, 2019",[[WP:AES|←]]Redirected page to [[2019 Canadian federal election]]
2019-10-22T05:31:08+00:00,922446826,922421949,1,QueensDivision,Julie Payette,/* Re-evaluating the role of GG */
2019-10-22T05:24:39+00:00,922446303,922442872,1,QueensDivision,2000 Canadian federal election,
2019-10-22T05:23:21+00:00,922446159,922414290,1,QueensDivision,Progressive Conservative Party of Canada,/* Party leaders */
2019-10-22T05:08:33+00:00,922444935,922444887,1,QueensDivision,Joe Clark,
2019-10-22T05:07:57+00:00,922444887,920130296,1,QueensDivision,Joe Clark,
2019-10-22T05:04:54+00:00,922444556,917917465,1,QueensDivision,Scott Brison,
2019-10-22T05:01:22+00:00,922444226,922436334,1,QueensDivision,Beauce (electoral district),/* Members of Parliament */
2019-10-22T04:12:00+00:00,922439815,922439271,1,QueensDivision,Maxime Bernier,Undid revision 922439271 by [[Special:Contributions/Melcous|Melcous]] ([[User talk:Melcous|talk]]) Bernier lost his seat according to official canadian election results
2019-10-22T03:33:42+00:00,922436337,922434679,1,QueensDivision,Richard Lehoux,
2019-10-21T15:47:03+00:00,922348468,922347998,1,QueensDivision,Reform Party of Canada,This was the consensus long before you came along and made these changes.
2019-10-21T15:42:51+00:00,922347998,922347977,1,QueensDivision,Reform Party of Canada,Undid revision 922328200 by [[Special:Contributions/Weelandlka|Weelandlka]] ([[User talk:Weelandlka|talk]])
2019-10-21T15:42:39+00:00,922347977,922328448,1,QueensDivision,Reform Party of Canada,Undid revision 922328448 by [[Special:Contributions/Weelandlka|Weelandlka]] ([[User talk:Weelandlka|talk]])
2019-10-21T15:42:21+00:00,922347931,922327606,1,QueensDivision,Canadian Alliance,Undid revision 922327606 by [[Special:Contributions/삭은사과|삭은사과]] ([[User talk:삭은사과|talk]]) Unexplained reversion. Sources are in the article itself
2019-10-19T23:28:13+00:00,922099215,921060832,1,QueensDivision,National Party of Honduras,Not reliable sources. Open to finding better sources
2019-10-18T14:43:43+00:00,921884217,921813182,1,QueensDivision,Japanese Communist Party,
2019-10-18T14:32:00+00:00,921882969,921056536,1,QueensDivision,United Conservative Party,
2019-10-18T00:20:14+00:00,921802109,921776118,1,QueensDivision,Together Gibraltar,Undid revision 921776118 by [[Special:Contributions/Vif12vf|Vif12vf]] ([[User talk:Vif12vf|talk]]) This is an ideology. See the ideology list for the US's Democratic and Republican Parties.
2019-10-18T00:16:59+00:00,921801775,920903814,1,QueensDivision,Whig Party (United States),"Returned sources for position, which were removed for some reason."
2019-10-18T00:11:02+00:00,921801130,921028232,1,QueensDivision,Liberal Party (UK),
2019-10-18T00:06:15+00:00,921800573,921152255,1,QueensDivision,Japanese Communist Party,
2019-10-18T00:03:16+00:00,921800184,921756117,1,QueensDivision,Chega (political party),
2019-10-17T23:54:53+00:00,921799187,921183390,1,QueensDivision,Reform Party of Canada,Undid revision 921183390 by [[Special:Contributions/삭은사과|삭은사과]] ([[User talk:삭은사과|talk]]) Sources are in article
2019-10-10T05:11:22+00:00,920500856,920304356,1,QueensDivision,Adam Smith,Horace Walpole was not a Tory
2019-10-10T00:57:33+00:00,920473224,919889503,1,QueensDivision,Uxbridge and South Ruislip (UK Parliament constituency),/* Elections in the 2010s */ Twitter is not a source.
2019-10-06T04:36:52+00:00,919842869,919842843,1,QueensDivision,Bloc Québécois,"Undid revision 919818235 by [[Special:Contributions/14.187.153.226|14.187.153.226]] ([[User talk:14.187.153.226|talk]]) Again, these edits are incorrect, and not backed up."
2019-10-06T04:36:35+00:00,919842843,919819231,1,QueensDivision,Bloc Québécois,Undid revision 919819231 by [[Special:Contributions/14.187.153.226|14.187.153.226]] ([[User talk:14.187.153.226|talk]])
2019-10-05T02:33:26+00:00,919677794,919676706,1,QueensDivision,Bloc Québécois,Undid revision 919676706 by [[Special:Contributions/14.187.237.46|14.187.237.46]] ([[User talk:14.187.237.46|talk]])
2019-10-04T03:40:33+00:00,919512161,919448202,1,QueensDivision,Fidesz,
2019-10-03T04:24:03+00:00,919334480,902427125,1,QueensDivision,National Democratic Party (United States),
2019-10-02T05:00:57+00:00,919163230,917155404,1,QueensDivision,Animal Politics EU,
2019-10-02T04:58:46+00:00,919163056,919162958,1,QueensDivision,Fidesz,
2019-10-02T04:57:18+00:00,919162958,919162790,1,QueensDivision,Fidesz,
2019-10-02T04:55:11+00:00,919162790,919157907,1,QueensDivision,Fidesz,
2019-10-02T04:28:58+00:00,919160345,917251966,1,QueensDivision,Fidesz–KDNP,"No sources for centre-right. Additionally, both member parties of this group, the Fidesz and KDNP, are listed as ""Right-Wing"", without centre-right."
2019-10-01T23:53:52+00:00,919125986,919116350,1,QueensDivision,2019 Austrian legislative election,"Undid revision 919114564 by [[Special:Contributions/AOKuneff|AOKuneff]] ([[User talk:AOKuneff|talk]]) Not enough sources, speculative, and opinionated. Please refrain from using phrases such as ""attacks on refugees"". Also, the statement about the ÖVP-SPÖ coalition is unsourced and pure speculation, not to mention that they have governed together for most of the post-war era"
2019-10-01T20:51:00+00:00,919099264,919098696,1,QueensDivision,Neoconservatism,/* Government officials */
2019-10-01T20:47:16+00:00,919098696,919098409,1,QueensDivision,Neoconservatism,/* Government officials */
2019-10-01T20:45:23+00:00,919098409,919097764,1,QueensDivision,Neoconservatism,Undid revision 917395422 by [[Special:Contributions/69.145.52.232|69.145.52.232]] ([[User talk:69.145.52.232|talk]])
2019-10-01T20:41:27+00:00,919097764,919097507,1,QueensDivision,Neoconservatism,
2019-10-01T20:39:37+00:00,919097507,919097481,1,QueensDivision,Neoconservatism,/* Public figures */
2019-10-01T20:39:24+00:00,919097481,917395422,1,QueensDivision,Neoconservatism,/* Public figures */
2019-10-01T20:20:43+00:00,919094851,915925997,1,QueensDivision,Landtag of Brandenburg,/* Current Composition */
2019-10-01T20:20:17+00:00,919094793,915926128,1,QueensDivision,Landtag of Saxony,/* Current Composition */
2019-10-01T20:18:46+00:00,919094582,916902765,1,QueensDivision,Mises Institute,
2019-10-01T02:22:58+00:00,918955945,912304017,1,QueensDivision,Praxeology,"Changed wording as to not imply that the Austrian School was Economics was developed by Mises. Mises actually developed the praxeological approach in Austrian Economics, but not the school itself."
2019-09-26T01:11:32+00:00,917899591,915906468,1,QueensDivision,States General of the Netherlands,
2019-09-20T18:51:35+00:00,916807139,916057667,1,QueensDivision,Libertarian Party (Australia),
2019-09-20T18:31:33+00:00,916803704,916803635,1,QueensDivision,Canadian Alliance,Undid revision 913234003 by [[Special:Contributions/Jbrown182002|Jbrown182002]] ([[User talk:Jbrown182002|talk]]) Undone unexplained revisions
2019-09-20T18:31:16+00:00,916803635,913234166,1,QueensDivision,Canadian Alliance,Undid revision 913234166 by [[Special:Contributions/Jbrown182002|Jbrown182002]] ([[User talk:Jbrown182002|talk]])
2019-09-20T18:30:57+00:00,916803578,913234537,1,QueensDivision,Reform Party of Canada,Undid revision 913234537 by [[Special:Contributions/Jbrown182002|Jbrown182002]] ([[User talk:Jbrown182002|talk]]) Undoing unexplained revision.
2019-09-16T01:32:45+00:00,915926128,915924219,1,QueensDivision,Landtag of Saxony,
2019-09-16T01:31:43+00:00,915925997,915924466,1,QueensDivision,Landtag of Brandenburg,
2019-09-16T01:19:52+00:00,915924466,914425639,1,QueensDivision,Landtag of Brandenburg,/* Current Composition */
2019-09-16T01:18:03+00:00,915924219,915908629,1,QueensDivision,Landtag of Saxony,/* Current Composition */
2019-09-15T23:19:02+00:00,915908629,915908150,1,QueensDivision,Landtag of Saxony,
2019-09-15T23:15:45+00:00,915908150,913019324,1,QueensDivision,Landtag of Saxony,/* Current Composition */
2019-09-15T23:03:05+00:00,915906468,915906381,1,QueensDivision,States General of the Netherlands,
2019-09-15T23:02:25+00:00,915906381,907975668,1,QueensDivision,States General of the Netherlands,
2019-09-15T16:02:38+00:00,915843338,915287747,1,QueensDivision,Five Star Movement,
2019-09-15T15:58:08+00:00,915842389,915841861,1,QueensDivision,Left Bloc (Portugal),
2019-09-15T15:51:16+00:00,915840852,912845472,1,QueensDivision,Japanese Communist Party,
2019-09-10T23:33:42+00:00,915055698,914788956,1,QueensDivision,Fatherland Front (Austria),Undid revision 914788956 by [[Special:Contributions/G.M. Sir Lawrence|G.M. Sir Lawrence]] ([[User talk:G.M. Sir Lawrence|talk]]) Reverting revision which had been preferred without any reason.
2019-09-10T06:59:09+00:00,914934660,914872027,1,QueensDivision,2019 Saxony state election,/* Election result */Changed sentence structure.
2019-09-09T18:32:14+00:00,914849725,914849132,1,QueensDivision,European Parliament,
2019-09-09T18:28:45+00:00,914849132,914847579,1,QueensDivision,European Parliament,
2019-09-09T18:19:09+00:00,914847579,914703731,1,QueensDivision,European Parliament,
2020-01-09T01:58:17+00:00,934883500,929823554,1,Gallia2,Category (Kant),Undid revision 929823554 by [[Special:Contributions/Berean Hunter|Berean Hunter]] ([[User talk:Berean Hunter|talk]]) Reverted until section becomes sourced.
2020-01-09T01:57:21+00:00,934883413,934881890,1,Gallia2,European Conservatives and Reformists,visual edit
2020-01-09T01:56:05+00:00,934883264,934883042,1,Gallia2,European Conservatives and Reformists Party,Added sources
2020-01-09T01:54:02+00:00,934883042,934876895,1,Gallia2,European Conservatives and Reformists Party,Fixed links on political position
2020-01-08T16:05:15+00:00,934805476,934278870,1,Gallia2,Dominant-party system,Undid revision 934143285 by [[Special:Contributions/172.103.149.125|172.103.149.125]] ([[User talk:172.103.149.125|talk]]) undid revision which removed sourced content
2020-01-08T05:20:26+00:00,934740870,933421336,1,Gallia2,"Progressive Party (United States, 1948–1955)",Undid revision 933421336 by [[Special:Contributions/208.67.96.82|208.67.96.82]] ([[User talk:208.67.96.82|talk]])
2020-01-08T05:16:56+00:00,934740518,931121785,1,Gallia2,Alan Keyes,Adding link to [[American Independent Party|American Independent]] Party
2020-01-08T05:05:14+00:00,934739336,934739176,1,Gallia2,1922 United States Senate elections,/* Elections leading to the 68th Congress */  Fixed broken link to Frank Wheeler Mondel
2020-01-08T05:03:26+00:00,934739176,922661181,1,Gallia2,1922 United States Senate elections,/* Wyoming */
2020-01-08T04:53:41+00:00,934738217,934736608,1,Gallia2,Alberta New Democratic Party,"Undid revision 934736608 by [[Special:Contributions/MoonlightTulsi|MoonlightTulsi]] ([[User talk:MoonlightTulsi|talk]]) Reverting edit that added a ""1 / 34"" bar underneath the ""Seats in Legislature"" bar."
2020-01-08T04:44:47+00:00,934737213,934737178,1,Gallia2,Conservative Party of Canada,Undid revision 934672186 by [[Special:Contributions/2001:569:7222:B800:A47B:DB8E:EDEA:F169|2001:569:7222:B800:A47B:DB8E:EDEA:F169]] ([[User talk:2001:569:7222:B800:A47B:DB8E:EDEA:F169|talk]]) reverted changes which destroyed the page
2020-01-08T04:44:27+00:00,934737178,934672583,1,Gallia2,Conservative Party of Canada,Undid revision 934672583 by [[Special:Contributions/2001:569:7222:B800:A47B:DB8E:EDEA:F169|2001:569:7222:B800:A47B:DB8E:EDEA:F169]] ([[User talk:2001:569:7222:B800:A47B:DB8E:EDEA:F169|talk]])
2020-01-08T04:43:50+00:00,934737121,934672084,1,Gallia2,Reform Party of Canada,Undid revision 934672084 by [[Special:Contributions/2001:569:7222:B800:A47B:DB8E:EDEA:F169|2001:569:7222:B800:A47B:DB8E:EDEA:F169]] ([[User talk:2001:569:7222:B800:A47B:DB8E:EDEA:F169|talk]]) Sources describe party as Centre-right
2020-01-08T04:42:55+00:00,934737042,934672028,1,Gallia2,Canadian Alliance,Undid revision 934672028 by [[Special:Contributions/2001:569:7222:B800:A47B:DB8E:EDEA:F169|2001:569:7222:B800:A47B:DB8E:EDEA:F169]] ([[User talk:2001:569:7222:B800:A47B:DB8E:EDEA:F169|talk]]) Sources describe party as Centre-right.
2020-01-08T04:36:46+00:00,934736437,934395113,1,Gallia2,William Lloyd Garrison,
2019-12-08T09:18:35+00:00,929801483,929800212,1,GoldwaterMan1771,Maxime Bernier,/* Formation of People's Party of Canada */
2019-12-08T09:17:01+00:00,929801093,929800191,1,GoldwaterMan1771,People's Party of Canada,
2019-12-08T09:09:21+00:00,929800212,929800158,1,GoldwaterMan1771,Maxime Bernier,/* Formation of People's Party of Canada */
2019-12-08T09:08:33+00:00,929800158,929798832,1,GoldwaterMan1771,Maxime Bernier,/* Formation of People's Party of Canada */
2019-12-08T09:03:41+00:00,929799771,929798857,1,GoldwaterMan1771,People's Party of Canada,The party did not run 338 candidates.
2019-12-08T08:56:11+00:00,929799158,929796226,1,GoldwaterMan1771,2019 London Bridge stabbing,/* Attacker */
2019-12-08T08:51:55+00:00,929798857,929798436,1,GoldwaterMan1771,People's Party of Canada,added source
2019-12-08T08:51:30+00:00,929798832,929798590,1,GoldwaterMan1771,Maxime Bernier,/* Formation of People's Party of Canada */  added source
2019-12-08T08:48:19+00:00,929798590,928238724,1,GoldwaterMan1771,Maxime Bernier,/* Formation of People's Party of Canada */
2019-12-08T08:46:13+00:00,929798436,929798265,1,GoldwaterMan1771,People's Party of Canada,
2019-12-08T08:43:46+00:00,929798265,929798205,1,GoldwaterMan1771,People's Party of Canada,wrapping
2019-12-08T08:43:04+00:00,929798205,929797959,1,GoldwaterMan1771,People's Party of Canada,
2019-12-08T08:40:23+00:00,929797959,929781904,1,GoldwaterMan1771,People's Party of Canada,
2019-12-08T08:30:54+00:00,929797305,929455409,1,GoldwaterMan1771,Katie Hill,/* Resignation */ political position of the blog irrelevant
2019-12-08T08:14:16+00:00,929796094,928522623,1,GoldwaterMan1771,Clement Attlee,
2019-12-08T08:04:17+00:00,929795262,929531055,1,GoldwaterMan1771,Nepal Communist Party,Returned source which was removed (for some reason...)
2019-12-08T05:52:21+00:00,929784767,929784751,1,GoldwaterMan1771,1960 United States presidential election in Illinois,
2019-12-08T05:52:09+00:00,929784751,925550110,1,GoldwaterMan1771,1960 United States presidential election in Illinois,
2019-12-08T05:31:04+00:00,929782970,917976929,1,GoldwaterMan1771,Albert Jay Nock,
2019-12-08T05:27:19+00:00,929782657,929782568,1,GoldwaterMan1771,Labour Party (UK),
2019-12-08T05:26:13+00:00,929782568,929782161,1,GoldwaterMan1771,Labour Party (UK),Fixed typo
2019-12-08T05:20:24+00:00,929782161,929781980,1,GoldwaterMan1771,Labour Party (UK),Fixed source wrapping. Sources in efn
2019-12-08T05:18:34+00:00,929781980,929657232,1,GoldwaterMan1771,Labour Party (UK),"This change has been discussed in the [[Talk:Labour Party (UK)|talk page]], and has been cited by multiple reliable sources."
2019-12-08T04:34:28+00:00,929778108,929674769,1,GoldwaterMan1771,Alan Keyes,
2019-12-08T04:09:36+00:00,929775634,929746604,1,GoldwaterMan1771,Firing Line (TV program),/* Broadcast history */ fixed year
2019-12-08T04:08:17+00:00,929775519,929683993,1,GoldwaterMan1771,American Independent Party,
2019-12-08T04:01:55+00:00,929774884,928284065,1,GoldwaterMan1771,Eldridge Cleaver,
2019-12-07T00:12:16+00:00,929611870,860625419,1,GoldwaterMan1771,Taxpayers Party of New York,
2019-12-07T00:01:52+00:00,929610615,929605186,1,GoldwaterMan1771,William F. Buckley Jr.,
2019-12-06T23:10:38+00:00,929605186,928654288,1,GoldwaterMan1771,William F. Buckley Jr.,
2019-12-06T23:04:12+00:00,929604497,926728229,1,GoldwaterMan1771,William F. Buckley Jr. bibliography,
2019-12-06T22:03:31+00:00,929598123,929504267,1,GoldwaterMan1771,London Bridge,Undid revision 929504267 by [[Special:Contributions/CambridgeBayWeather|CambridgeBayWeather]] ([[User talk:CambridgeBayWeather|talk]]) Undid sourced claim for no reason.
2019-12-06T22:01:08+00:00,929597889,925640875,1,GoldwaterMan1771,National Review,/* Early years */  Updated to more picture of Buckley from the time of National Review's founding
2019-12-06T21:59:27+00:00,929597703,929422512,1,GoldwaterMan1771,Firing Line (TV program),/* Broadcast history */
2019-12-06T21:58:36+00:00,929597607,928269872,1,GoldwaterMan1771,List of American conservatives,/* People */
2019-12-06T21:57:49+00:00,929597525,928748715,1,GoldwaterMan1771,History of conservatism in the United States,/* William F. Buckley Jr. and the National Review */
2019-12-06T21:52:27+00:00,929596907,888286101,1,GoldwaterMan1771,1965 New York City mayoral election,
2019-12-04T16:56:51+00:00,929256123,929227899,1,GoldwaterMan1771,London Bridge,/* Modern London Bridge {{anchor|New London Bridge|1973}} */
2019-12-04T06:57:55+00:00,929193448,929191500,1,GoldwaterMan1771,2019 London Bridge stabbing,/* Attacker */
2019-12-04T06:56:08+00:00,929193267,929193160,1,GoldwaterMan1771,Usman Khan (terrorist),
2019-12-04T06:55:25+00:00,929193160,929150028,1,GoldwaterMan1771,Usman Khan (terrorist),
2019-12-04T06:38:19+00:00,929191598,929191322,1,GoldwaterMan1771,Talk:2019 London Bridge stabbing,/* Merge proposal for Usman Khan (militant) */
2019-12-04T06:33:23+00:00,929191216,929191144,1,GoldwaterMan1771,London Bridge,/* Modern London Bridge {{anchor|New London Bridge|1973}} */
2019-12-04T06:32:30+00:00,929191144,928974219,1,GoldwaterMan1771,London Bridge,/* Modern London Bridge {{anchor|New London Bridge|1973}} */
2019-12-04T04:43:04+00:00,929182104,907269627,1,GoldwaterMan1771,Category (Kant),"Removed the extremely flawed section about Schopenhauer. The section is too vague, and has no sources; it should be added back when these are provided."
2019-12-04T04:39:55+00:00,929181861,929170677,1,GoldwaterMan1771,1960 United States presidential election,Undid revision 929170677 by [[Special:Contributions/Wow]] ([[User talk:Wow|talk]]) The long-standing consensus on all elections are that candidates that won states are listed. Reagan's vote was from a Faithless Elector—the elector was supposed to vote for Ford. Byrd WAS a candidate. All but 1 of his votes were from electors pledged to vote for him—he won Mississippi and 6 electors pledged to him from Alabama. Learn the difference. Should we removed Debs from 1912? He did not win any states.
2019-12-03T17:33:26+00:00,929099520,924701814,1,GoldwaterMan1771,User talk:85.255.232.163,Undid revision 924701814 by [[Special:Contributions/Vif12vf|Vif12vf]] ([[User talk:Vif12vf|talk]])
2019-12-03T17:32:37+00:00,929099424,924734118,1,GoldwaterMan1771,Radical Party of Chile,Undid revision 924734118 by [[Special:Contributions/Vif12vf|Vif12vf]] ([[User talk:Vif12vf|talk]])
2019-12-03T17:29:16+00:00,929099054,928070696,1,GoldwaterMan1771,Nepal Communist Party,Undid revision 928070696 by [[Special:Contributions/31.168.100.81|31.168.100.81]] ([[User talk:31.168.100.81|talk]])
2019-12-03T17:22:06+00:00,929098161,928969264,1,GoldwaterMan1771,1960 United States presidential election,Undid revision 928829465 by [[Special:Contributions/Wow|Wow]] ([[User talk:Wow|talk]]) Removed for no reason. Please keep this page at the consensus. This format is used in all the presidential election articles from the early 1800s to 2016. This is the accepted format. Please discuss on the talk page if you want to change it here.
2019-11-30T07:26:39+00:00,928581124,928578824,1,GoldwaterMan1771,MediaWiki talk:Spam-whitelist,/* econlib.org */
2019-11-29T17:29:46+00:00,928500249,928497025,1,GoldwaterMan1771,1960 United States presidential election,
2019-11-29T17:23:58+00:00,928499704,928499613,1,GoldwaterMan1771,1948 United States presidential election,
2019-11-29T17:23:09+00:00,928499613,928482745,1,GoldwaterMan1771,1948 United States presidential election,"Undid revision 928482745 by [[Special:Contributions/2600:8805:E000:132F:B8BD:1E7:EACF:F62|2600:8805:E000:132F:B8BD:1E7:EACF:F62]] ([[User talk:2600:8805:E000:132F:B8BD:1E7:EACF:F62|talk]]) No consensus to put Henry Wallace on here, given the small number of votes he got. The only reason Thurmond is up here is because he won a number of states"
2019-11-29T15:37:40+00:00,928488400,928449985,1,GoldwaterMan1771,MediaWiki talk:Spam-whitelist,/* econlib.org */
2019-11-29T07:36:27+00:00,928449482,927723007,1,GoldwaterMan1771,Centre-right coalition (Italy),All the sources cited actually describe the coalition as having far-right elements.
2019-11-29T07:34:34+00:00,928449364,928449101,1,GoldwaterMan1771,MediaWiki talk:Spam-whitelist,/* econlib.org */
2019-11-28T06:08:20+00:00,928309881,918840452,1,GoldwaterMan1771,"Progressive Party (United States, 1948–1955)",
2019-11-28T06:07:45+00:00,928309831,928302412,1,GoldwaterMan1771,MediaWiki talk:Spam-whitelist,/* econlib.org */
2019-11-28T04:14:32+00:00,928301184,928298778,1,GoldwaterMan1771,MediaWiki talk:Spam-whitelist,
2019-11-27T18:52:58+00:00,928236734,928235649,1,GoldwaterMan1771,Strom Thurmond,
2019-11-27T18:51:50+00:00,928236575,887637338,1,GoldwaterMan1771,Template:Strom Thurmond series,
2019-11-27T18:45:59+00:00,928235649,928200084,1,GoldwaterMan1771,Strom Thurmond,/* Governor of South Carolina */
2019-11-27T18:40:41+00:00,928235025,928111572,1,GoldwaterMan1771,1960 United States presidential election,"Barry Goldwater was not Byrd's running mate.\nByrd's running mate was Strom Thurmond, voted for by the ''unpledged'' electors.\nGoldwater was voted for by a ''faithless'' republican elector."
2019-11-26T23:45:00+00:00,928123347,919305386,1,GoldwaterMan1771,John Hospers,
2019-11-26T16:52:14+00:00,928071258,918816576,1,GoldwaterMan1771,"Samajbadi Party, Nepal (2019)",
2019-11-24T07:27:21+00:00,927707198,927639423,1,GoldwaterMan1771,User talk:Factsinwiki,Undid revision 927639423 by [[Special:Contributions/Factsinwiki|Factsinwiki]] ([[User talk:Factsinwiki|talk]])
2019-11-24T07:25:08+00:00,927707007,927669502,1,GoldwaterMan1771,Maxime Bernier,/* Formation of People's Party of Canada */
2019-11-22T03:55:45+00:00,927381793,927381099,1,GoldwaterMan1771,Director of the Federal Bureau of Investigation,/* Federal Bureau of Investigation directors (1935–present) */
2019-11-22T03:55:29+00:00,927381769,926782935,1,GoldwaterMan1771,L. Patrick Gray,
2019-11-22T03:47:49+00:00,927381099,927381013,1,GoldwaterMan1771,Director of the Federal Bureau of Investigation,/* Federal Bureau of Investigation directors (1935–present) */
2019-11-22T03:46:43+00:00,927381013,927194364,1,GoldwaterMan1771,Director of the Federal Bureau of Investigation,/* Federal Bureau of Investigation directors (1935–present) */
2019-11-21T22:00:31+00:00,927342572,927301605,1,GoldwaterMan1771,MediaWiki talk:Spam-whitelist,/* econlib.org */
2019-11-21T20:02:29+00:00,927328738,924503845,1,GoldwaterMan1771,French Section of the Workers' International,
2019-11-21T00:43:42+00:00,927204890,927196026,1,GoldwaterMan1771,Chair of the Federal Reserve,/* List of Fed Chairs */
2019-11-21T00:18:07+00:00,927201532,927201396,1,GoldwaterMan1771,MediaWiki talk:Spam-whitelist,/* econlib.org */
2019-11-21T00:17:15+00:00,927201396,927179258,1,GoldwaterMan1771,MediaWiki talk:Spam-whitelist,/* econlib.org */
2019-11-21T00:13:11+00:00,927200863,926767140,1,GoldwaterMan1771,Brett Kavanaugh,Removed Party affiliation. Not relevant for a member of the independent and non-partisan Judiciary
2019-11-20T23:41:29+00:00,927196293,894705082,1,GoldwaterMan1771,Portal:Business/Did you know/December 2006,
2019-11-20T23:41:02+00:00,927196225,894999241,1,GoldwaterMan1771,Portal:Business/Did you know/4,
2019-11-20T23:39:45+00:00,927196026,927177772,1,GoldwaterMan1771,Chair of the Federal Reserve,/* List of Fed Chairs */
2019-11-20T23:38:57+00:00,927195917,927111602,1,GoldwaterMan1771,William McChesney Martin,
2019-11-20T23:27:37+00:00,927194364,927175954,1,GoldwaterMan1771,Director of the Federal Bureau of Investigation,/* Federal Bureau of Investigation directors (1935–present) */
2019-11-20T22:22:13+00:00,927185959,927185415,1,GoldwaterMan1771,Associate Justice of the Supreme Court of the United States,/* List of associate justices */
2019-11-20T22:17:42+00:00,927185415,927185375,1,GoldwaterMan1771,Associate Justice of the Supreme Court of the United States,/* List of associate justices */
2019-11-20T22:17:22+00:00,927185375,922076305,1,GoldwaterMan1771,Associate Justice of the Supreme Court of the United States,/* List of associate justices */
2019-11-20T21:37:05+00:00,927180045,927179468,1,GoldwaterMan1771,Chief Justice of the United States,/* List of chief justices */
2019-11-20T21:32:23+00:00,927179468,926450674,1,GoldwaterMan1771,Chief Justice of the United States,/* List of chief justices */
2019-11-20T21:18:27+00:00,927177772,927173991,1,GoldwaterMan1771,Chair of the Federal Reserve,/* List of Fed Chairs */
2019-11-20T21:04:08+00:00,927175954,926817123,1,GoldwaterMan1771,Director of the Federal Bureau of Investigation,/* Federal Bureau of Investigation directors (1935–present) */
2019-11-20T20:49:04+00:00,927173991,926519882,1,GoldwaterMan1771,Chair of the Federal Reserve,/* List of Fed Chairs */
2019-11-20T20:22:11+00:00,927170535,927170231,1,GoldwaterMan1771,MediaWiki talk:Spam-whitelist,/* econlib.org */
2019-11-20T20:20:17+00:00,927170231,927170072,1,GoldwaterMan1771,MediaWiki talk:Spam-whitelist,/* econlib.org */
2019-11-20T20:19:07+00:00,927170072,927169981,1,GoldwaterMan1771,MediaWiki talk:Spam-whitelist,/* econlib.org */
2019-11-20T20:18:30+00:00,927169981,927169943,1,GoldwaterMan1771,MediaWiki talk:Spam-whitelist,/* econlib.org */
2019-11-20T20:18:14+00:00,927169943,926737371,1,GoldwaterMan1771,MediaWiki talk:Spam-whitelist,/* Proposed additions to Whitelist (web pages to unblock) */
2019-11-20T20:12:02+00:00,927169094,924259455,1,GoldwaterMan1771,Bryan Caplan,
2019-11-15T21:40:38+00:00,926363774,926359032,1,GoldwaterMan1771,Serbian Progressive Party,Undid revision 926359032 by [[Special:Contributions/77.46.220.19|77.46.220.19]] ([[User talk:77.46.220.19|talk]])
2019-11-15T04:52:55+00:00,926254769,926254738,1,GoldwaterMan1771,1964 Republican Party presidential primaries,/* Nominee */
2019-11-15T04:52:38+00:00,926254738,926033562,1,GoldwaterMan1771,1964 Republican Party presidential primaries,/* Nominee */
2019-11-15T04:37:06+00:00,926252880,926252821,1,GoldwaterMan1771,List of unsuccessful major party candidates for President of the United States,
2019-11-15T04:36:37+00:00,926252821,926190423,1,GoldwaterMan1771,List of unsuccessful major party candidates for President of the United States,
2019-11-14T20:00:24+00:00,926191513,926053919,1,GoldwaterMan1771,Liberal Party (UK),
2019-11-14T19:58:27+00:00,926191272,911022249,1,GoldwaterMan1771,Communist Party of Nepal (United),
2019-11-14T19:38:39+00:00,926188732,926000819,1,GoldwaterMan1771,Awami League,
2019-11-14T19:34:11+00:00,926188074,926188015,1,GoldwaterMan1771,Serbian Progressive Party,
2019-11-14T19:33:50+00:00,926188015,925856104,1,GoldwaterMan1771,Serbian Progressive Party,
2019-11-14T19:30:55+00:00,926187654,926186355,1,GoldwaterMan1771,List of unsuccessful major party candidates for President of the United States,
2019-11-14T19:21:16+00:00,926186355,926084638,1,GoldwaterMan1771,List of unsuccessful major party candidates for President of the United States,
2019-11-14T19:14:48+00:00,926185416,908597590,1,GoldwaterMan1771,1964 United States presidential election in West Virginia,
2019-11-14T19:12:04+00:00,926185050,917138410,1,GoldwaterMan1771,Template:Barry Goldwater,
2019-11-14T19:09:48+00:00,926184715,925734722,1,GoldwaterMan1771,1980 United States Senate elections,/* Arizona */
2019-11-14T19:09:29+00:00,926184675,922061695,1,GoldwaterMan1771,1974 United States Senate elections,
2019-11-14T19:09:06+00:00,926184629,920967663,1,GoldwaterMan1771,1968 United States Senate elections,
2019-11-14T19:04:15+00:00,926183963,926031850,1,GoldwaterMan1771,List of United States senators from Arizona,
2019-11-14T19:02:03+00:00,926183609,922097487,1,GoldwaterMan1771,List of United States senators from South Carolina,
2019-11-14T18:57:00+00:00,926182816,926152938,1,GoldwaterMan1771,Opinion polling for the 2019 United Kingdom general election,/* Seat predictions */
2019-11-14T16:24:05+00:00,926159566,924877294,1,GoldwaterMan1771,Nepal Communist Party,
2019-11-14T16:23:28+00:00,926159467,924760884,1,GoldwaterMan1771,Rastriya Janata Party Nepal,Undid revision 924760884 by [[Special:Contributions/Vif12vf|Vif12vf]] ([[User talk:Vif12vf|talk]])
2019-11-14T16:16:06+00:00,926158382,926158054,1,GoldwaterMan1771,League of Communists of Yugoslavia,
2019-11-14T16:13:40+00:00,926158054,925187255,1,GoldwaterMan1771,League of Communists of Yugoslavia,
2019-11-14T00:40:20+00:00,926061030,921265214,1,GoldwaterMan1771,1966 United States Senate election in South Carolina,
2019-11-13T23:42:34+00:00,926053715,919706513,1,GoldwaterMan1771,1960 United States Senate election in South Carolina,
2019-11-13T23:42:14+00:00,926053680,919706546,1,GoldwaterMan1771,1954 United States Senate election in South Carolina,
2019-11-13T23:38:42+00:00,926053277,926053191,1,GoldwaterMan1771,1948 United States presidential election,/* States' Rights Democratic Party nomination */
2019-11-13T23:37:51+00:00,926053191,921329923,1,GoldwaterMan1771,1948 United States presidential election,
2019-11-13T23:36:25+00:00,926053053,920485803,1,GoldwaterMan1771,List of governors of South Carolina,/* Governors under the Constitution of 1895 */
2019-11-13T23:34:39+00:00,926052836,905895982,1,GoldwaterMan1771,List of United States Republican Party presidential tickets,/* 1964 */
2019-11-13T23:33:45+00:00,926052675,911334256,1,GoldwaterMan1771,1946 South Carolina gubernatorial election,
2019-11-13T23:21:03+00:00,926050808,926033441,1,GoldwaterMan1771,1960 United States presidential election,/* Republican Party */
2019-11-13T21:27:57+00:00,926035828,918465701,1,GoldwaterMan1771,Goldwater Institute,
2019-11-13T21:25:31+00:00,926035470,918695191,1,GoldwaterMan1771,Cable Communications Policy Act of 1984,/* History */
2019-11-13T21:25:10+00:00,926035424,922360616,1,GoldwaterMan1771,Alaska Mental Health Enabling Act,/* Passing the bill */
2019-11-13T21:24:39+00:00,926035333,920674371,1,GoldwaterMan1771,Barry Goldwater 1964 presidential campaign,/* Background */
2019-11-13T21:23:52+00:00,926035201,909503369,1,GoldwaterMan1771,1980 United States Senate election in Arizona,
2019-11-13T21:23:43+00:00,926035179,873897221,1,GoldwaterMan1771,1974 United States Senate election in Arizona,
2019-11-13T21:23:32+00:00,926035156,901807360,1,GoldwaterMan1771,1968 United States Senate election in Arizona,
2019-11-13T21:23:12+00:00,926035096,926033642,1,GoldwaterMan1771,1964 United States presidential election,/* Republican Party */
2019-11-13T21:22:17+00:00,926034942,914743505,1,GoldwaterMan1771,1964 Republican National Convention,
2019-11-13T21:19:05+00:00,926034501,921085594,1,GoldwaterMan1771,1958 United States Senate election in Arizona,
2019-11-13T21:18:54+00:00,926034479,917168372,1,GoldwaterMan1771,1952 United States Senate election in Arizona,
2019-11-13T21:13:47+00:00,926033819,924065942,1,GoldwaterMan1771,Electoral history of Barry Goldwater,
2019-11-13T21:12:31+00:00,926033642,926032016,1,GoldwaterMan1771,1964 United States presidential election,/* Republican Party */
2019-11-13T21:12:01+00:00,926033562,926031896,1,GoldwaterMan1771,1964 Republican Party presidential primaries,
2019-11-13T21:11:09+00:00,926033441,925117540,1,GoldwaterMan1771,1960 United States presidential election,/* Republican Party */
2019-11-09T22:35:52+00:00,925402852,925323998,1,KorwinFan3000,Greek Solution,
2019-11-09T22:35:10+00:00,925402772,924676614,1,KorwinFan3000,National Socialist Japanese Workers' Party,
2019-11-09T22:34:21+00:00,925402691,915744135,1,KorwinFan3000,British Columbia New Democratic Party,
2019-11-09T22:28:33+00:00,925402144,925114489,1,KorwinFan3000,Saskatchewan New Democratic Party,
2019-11-09T22:21:08+00:00,925401358,925387215,1,KorwinFan3000,Alberta New Democratic Party,"Undid revision 925114374 by [[Special:Contributions/174.115.218.96|174.115.218.96]] ([[User talk:174.115.218.96|talk]]) Returning statement, WITH SOURCE, that was removed for no reason"
2019-11-08T22:15:51+00:00,925260389,923920926,1,KorwinFan3000,Tea Party Caucus,
2019-11-08T22:08:28+00:00,925259499,925259429,1,KorwinFan3000,Free Soil Party,
2019-11-08T22:07:59+00:00,925259429,924932781,1,KorwinFan3000,Free Soil Party,
2019-11-08T22:05:58+00:00,925259218,920679288,1,KorwinFan3000,Anti-Administration party,
2019-11-07T20:19:42+00:00,925093014,922809489,1,KorwinFan3000,Social Democratic Party of Austria,
2019-11-07T17:04:35+00:00,925067181,924666324,1,KorwinFan3000,Christian Democratic Party (Bolivia),Undid revision 924666324 by [[Special:Contributions/180.241.44.245|180.241.44.245]] ([[User talk:180.241.44.245|talk]])
2019-11-07T16:44:26+00:00,925064852,925064645,1,KorwinFan3000,Democratic-Republican Party,"Undid revision 925058077 by [[Special:Contributions/Rjensen|Rjensen]] ([[User talk:Rjensen|talk]]) left not a political position. Current consensus is that D-R was centre to centre-left (which is on the ""left"" since supported the French Revolution). Bring this to discussion in talk."
2019-11-07T16:42:56+00:00,925064645,925058707,1,KorwinFan3000,Democratic-Republican Party,"Undid revision 925058707 by [[Special:Contributions/Rjensen|Rjensen]] ([[User talk:Rjensen|talk]]) After 1815, very few federalists in Congress because D-R became a big tent party. Just look at factions like Clay-Adams etc"
2019-11-07T01:14:45+00:00,924971300,924967169,1,KorwinFan3000,Japanese Communist Party,"Mentioned that the party was historically on the far-left (adding back in the source from the 1970s), but has moderated."
2019-11-03T21:21:07+00:00,924437454,924437337,1,KorwinFan3000,Canada Party (2015),
2019-11-03T21:19:58+00:00,924437307,880366787,1,KorwinFan3000,Canada Party (2015),
2019-10-31T20:45:10+00:00,923951050,918480021,1,KorwinFan3000,Solidarity Civic Unity,
2019-10-31T18:12:08+00:00,923931423,922844567,1,KorwinFan3000,Christian Democratic Party (Bolivia),
2019-10-31T18:04:35+00:00,923930534,922406091,1,KorwinFan3000,Social Democratic Movement,
2019-10-31T18:01:47+00:00,923930084,923830991,1,KorwinFan3000,Movimiento al Socialismo,
2019-10-31T18:00:56+00:00,923929938,923413390,1,KorwinFan3000,Landtag of Brandenburg,Undid revision 923413390 by [[Special:Contributions/TiltuM|TiltuM]] ([[User talk:TiltuM|talk]]) No coalition formed yet
2019-10-30T23:41:50+00:00,923817672,923817205,1,KorwinFan3000,Movimiento al Socialismo,
2019-10-30T23:38:51+00:00,923817422,923666422,1,KorwinFan3000,Tea Party Caucus,
2019-10-30T23:36:27+00:00,923817205,923816939,1,KorwinFan3000,Movimiento al Socialismo,
2019-10-30T23:33:42+00:00,923816939,923816764,1,KorwinFan3000,Movimiento al Socialismo,
2019-10-30T23:31:45+00:00,923816764,922880061,1,KorwinFan3000,Movimiento al Socialismo,
2019-10-21T15:25:19+00:00,922345909,922345584,1,KorwinFan3000,New Democratic Party,"Added sources, fixed formatting"
2019-10-21T15:22:48+00:00,922345584,922345456,1,KorwinFan3000,New Democratic Party,
2019-10-21T15:21:45+00:00,922345456,922345253,1,KorwinFan3000,New Democratic Party,Undid revision 922345253 by [[Special:Contributions/KorwinFan3000|KorwinFan3000]] ([[User talk:KorwinFan3000|talk]])
2019-10-21T15:20:18+00:00,922345253,922329568,1,KorwinFan3000,New Democratic Party,
2019-10-20T21:27:20+00:00,922237616,922236898,1,KorwinFan3000,Janusz Korwin-Mikke,Undid revision 922236898 by [[Special:Contributions/Acroterion|Acroterion]] ([[User talk:Acroterion|talk]]) Elected in the most recent Polish election.
2019-10-20T21:19:43+00:00,922236676,922236642,1,KorwinFan3000,Tea Party Caucus,
2019-10-20T21:19:32+00:00,922236642,921310806,1,KorwinFan3000,Tea Party Caucus,Need proper sources to verify claim.
2019-10-20T20:34:25+00:00,922230834,922230246,1,KorwinFan3000,Janusz Korwin-Mikke,
2019-10-20T20:29:53+00:00,922230246,921926079,1,KorwinFan3000,Janusz Korwin-Mikke,
2019-11-10T05:52:01+00:00,925452926,925452721,1,Vif12vgg,Democratic-Republican Party,
2019-11-10T05:49:12+00:00,925452721,925452672,1,Vif12vgg,Democratic-Republican Party,
2019-11-10T05:48:27+00:00,925452672,925064852,1,Vif12vgg,Democratic-Republican Party,
2019-11-10T05:40:14+00:00,925451904,924782682,1,Vif12vgg,User talk:Vif12vf,/* Social Democratic Party of Croatia */
2019-11-10T05:37:47+00:00,925451690,909746387,1,Vif12vgg,Radical Democracy Party (United States),
2019-10-23T14:40:03+00:00,922661181,922259204,0,GoldRingChip,1922 United States Senate elections,1922 United States Senate elections in Pennsylvania
2019-09-10T03:27:18+00:00,914915596,914602570,0,Vanished user 4783516,1922 United States Senate elections,"/* Pennsylvania (Special, Class 3) */ Added Dem %"
2019-12-08T13:19:39+00:00,929823578,926052675,0,Berean Hunter,1946 South Carolina gubernatorial election,rv sock
2019-09-22T15:40:08+00:00,917168372,912785725,0,Kahtar,1952 United States Senate election in Arizona,"Repair CS1 error(s), replaced: deadurl=yes → url-status=dead"
2019-08-18T07:02:24+00:00,911334256,874208787,0,107.197.44.171,1946 South Carolina gubernatorial election,/* General election */
2020-01-05T03:02:49+00:00,934171046,933854364,0,OkayKenji,1948 United States presidential election,"[[Wikipedia:CHECKWIKI]] error fix, found punctuation after the reference (see [[WP:REFPUNC]]);"
2019-09-26T22:21:23+00:00,918075861,918056112,0,24.229.150.223,1948 United States presidential election,Undid revision 918056112 by [[Special:Contributions/Gamera 1965-2006|Gamera 1965-2006]] ([[User talk:Gamera 1965-2006|talk]])
2019-12-16T13:37:04+00:00,931025156,929824656,0,151.65.144.180,1948 United States presidential election,/* Results */
2019-09-09T02:58:20+00:00,914737374,914351113,0,Monkbot,1948 United States presidential election,[[User:Monkbot/task 16: remove replace deprecated dead-url params|Task 16]]: replaced (2×) / removed (0×) deprecated |dead-url= and |deadurl= with |url-status=;
2019-12-18T14:47:04+00:00,931372912,929823560,0,InternetArchiveBot,1954 United States Senate election in South Carolina,Bluelinking 1 books for [[WP:V|verifiability]].) #IABot (v2.1alpha3
2019-08-27T21:03:03+00:00,912785676,873896176,0,Love of Corey,1958 United States Senate election in Arizona,
2019-06-14T11:44:11+00:00,901805697,873895971,0,BD2412,1954 United States Senate election in South Carolina,"/* Campaigns of the candidates */One-time conversion of links from moved articles to improve ease of automated parsing., replaced: [[United States presidential election, 194 → [[194 United States presidential election,  United States presidential"
2019-10-15T04:23:07+00:00,921329923,919837384,0,JJMC89 bot,1948 United States presidential election,Removed [[WP:NFCC]] violation(s). No valid [[WP:NFUR|non-free use rationale]] for this page. See [[WP:NFC#Implementation]]. Questions? [[WP:MCQ|Ask here]].
2019-10-05T08:23:55+00:00,919706513,919706491,0,107.197.44.171,1960 United States Senate election in South Carolina,/* Democratic primary */
2020-01-04T21:54:56+00:00,934122495,934122331,0,99.152.241.118,1960 United States presidential election,
2019-09-29T01:28:56+00:00,918512851,918512781,0,Koavf,1960 United States presidential election,/* Unpledged Democratic electors */
2019-12-08T13:29:43+00:00,929824555,929824541,0,Berean Hunter,1960 United States presidential election,Adding {{pp-sock}} ([[WP:TW|TW]])
2019-12-18T05:13:08+00:00,931307675,931040856,0,InternetArchiveBot,1960 United States presidential election,Bluelinking 2 books for [[WP:V|verifiability]].) #IABot (v2.1alpha3
2019-12-10T17:47:22+00:00,930166753,927782965,0,Túrelio,1964 Republican National Convention,([[c:GR|GR]]) [[c:COM:Duplicate|Duplicate]]: [[File:Barry Goldwater Cropped.png]] → [[File:Senator Goldwater 1960.jpg]] Exact or scaled-down duplicate: [[c::File:Senator Goldwater 1960.jpg]]
2019-12-16T15:58:12+00:00,931040856,931040043,0,108.28.36.237,1960 United States presidential election,/* Campaign events */
2019-09-09T03:44:12+00:00,914741883,914679920,0,Monkbot,1960 United States presidential election,[[User:Monkbot/task 16: remove replace deprecated dead-url params|Task 16]]: replaced (3×) / removed (0×) deprecated |dead-url= and |deadurl= with |url-status=;
2019-12-23T22:26:15+00:00,932165462,929823581,0,DannyS712,1960 United States presidential election in Illinois,Fix infobox image syntax (in [[Category:Pages using deprecated image syntax]])
2019-09-09T04:00:58+00:00,914743505,907771130,0,Monkbot,1964 Republican National Convention,/* The convention */[[User:Monkbot/task 16: remove replace deprecated dead-url params|Task 16]]: replaced (1×) / removed (0×) deprecated |dead-url= and |deadurl= with |url-status=;
2019-10-17T12:26:01+00:00,921712970,921712206,0,Luokehao,1960 United States presidential election in Illinois,Improving statewide results to explain Socialist Labor shading especially
2019-11-10T21:00:32+00:00,925550110,921712970,0,JCC the Alternate Historian,1960 United States presidential election in Illinois,One of the presidential election articles wasn't linked properly.
2019-12-30T21:45:05+00:00,933259356,933258980,0,Freeknowledgecreator,1960 United States presidential election,punctuation
2019-09-07T20:51:57+00:00,914504889,910440763,0,71.58.56.214,1964 Republican Party presidential primaries,
2019-11-06T09:59:38+00:00,924854375,924835274,0,2601:642:C400:9BA0:948:84B:5FC1:E8CB,1964 United States presidential election,
2019-11-22T18:36:46+00:00,927472552,927459122,0,Jon698,1964 United States presidential election,
2019-09-15T02:25:36+00:00,915743062,915533664,0,Mccapra,1964 United States presidential election,"/* See also */ Adding link to orphaned article, Wikiproject Orphanage: [[Wikipedia:ORPHAN|You can help!]]"
2019-10-04T13:14:02+00:00,919574014,919394979,0,Rja13ww33,1964 United States presidential election,Conservatives of all stripes moved to the GOP in this time frame. No need to identify by race. Unless a RS says conservatives of other racial groups didn't realign.
2019-09-05T22:13:10+00:00,914216452,873896783,0,86.157.19.237,1966 United States Senate election in South Carolina,
2019-07-30T18:50:11+00:00,908597590,901807062,0,JCC the Alternate Historian,1964 United States presidential election in West Virginia,Doing a minor adjustment of the date on the election infobox and infotable.
2019-03-18T04:31:31+00:00,888286101,876546918,0,SecretName101,1965 New York City mayoral election,"new key for [[Category:1965 United States mayoral elections]]: ""New York"" using [[WP:HC|HotCat]]"
2019-12-08T13:19:39+00:00,929823570,926035156,0,Berean Hunter,1968 United States Senate election in Arizona,rv sock
2019-12-08T13:19:39+00:00,929823564,926061030,0,Berean Hunter,1966 United States Senate election in South Carolina,rv sock
2018-12-15T20:31:07+00:00,873897221,873463474,0,Cydebot,1974 United States Senate election in Arizona,"Robot - Speedily moving category United States Senate elections, 1974 to [[:Category:1974 United States Senate elections]] per [[WP:CFDS|CFDS]]."
2019-11-24T14:40:07+00:00,927747906,926184675,0,47.223.78.205,1974 United States Senate elections,/* South Dakota */
2019-12-31T07:24:02+00:00,933325441,931901606,0,2601:6C4:4000:E100:3176:C501:2952:A995,1974 United States Senate elections,
2019-09-10T12:38:04+00:00,914969033,910824009,0,Monkbot,2019 Austrian legislative election,/* Ibiza affair and snap election announcements */[[User:Monkbot/task 16: remove replace deprecated dead-url params|Task 16]]: replaced (3×) / removed (0×) deprecated |dead-url= and |deadurl= with |url-status=;
2019-08-05T21:01:21+00:00,909503369,901844659,0,2600:100C:B210:E9DA:EAF7:EC10:CE48:31A5,1980 United States Senate election in Arizona,
2019-12-22T17:46:04+00:00,931987259,931939779,0,Davemck,2019 London Bridge stabbing,rename duplicate parm
2019-11-17T11:56:11+00:00,926590749,923159568,0,Impru20,2000 Canadian federal election,Undid revision 922442872 by [[Special:Contributions/Alejxon|Alejxon]] ([[User talk:Alejxon|talk]]) No consensus for such a change
2019-09-15T20:19:20+00:00,915883557,915877263,0,Impru20,2019 Saxony state election,/* Vote share */
2019-10-26T19:24:33+00:00,923159568,923159420,0,Amrcmln,2000 Canadian federal election,/* Results by province */
2019-12-25T10:52:39+00:00,932369450,932367527,0,SamWinchester000,2019 Saxony state election,A relevant party in Germany which wasn't far away from the 5% (while the Free Voters aren't really relevant as they have only ever achieved representation and relevant results in Bavaria).
2019-11-08T00:25:45+00:00,925123929,924485285,0,179.213.43.100,Adam Smith,
2019-11-22T10:42:43+00:00,927415577,927415283,0,WQUlrich,Adam Smith,Reverted 1 pending edit by [[Special:Contributions/81.110.143.140|81.110.143.140]] to revision 926890189 by 2606:A000:E5CF:7C00:F11A:E26C:A7A:7F3D
2019-09-12T04:36:06+00:00,915260643,915260561,0,Epinoia,Adam Smith,/* See also */  - Capitalism and Invisible hand already linked in article
2019-09-20T15:43:35+00:00,916775964,915095199,0,InternetArchiveBot,Alan Keyes,Rescuing 1 sources and tagging 0 as dead.) #IABot (v2.0
2019-11-14T22:03:35+00:00,926208631,925811311,0,InternetArchiveBot,Adam Smith,Rescuing 7 sources and tagging 0 as dead.) #IABot (v2.0
2019-12-17T02:37:54+00:00,931121785,931121581,0,SunCrow,Alan Keyes,rearrange led
2019-05-11T20:20:20+00:00,896624534,891068579,0,InternetArchiveBot,Albert Jay Nock,Rescuing 1 sources and tagging 0 as dead. #IABot (v2.0beta14)
2019-12-19T23:05:25+00:00,931602439,929823568,0,NedFausa,American Independent Party,Update officers
2019-09-26T11:39:31+00:00,917976929,896624534,0,Tom.Reding,Albert Jay Nock,[[:Category:CS1 errors: deprecated parameters]]: migrate 1/1 |dead-url= to |url-status=; minor cleanup; [[WP:GenFixes]] on
2019-09-01T05:06:48+00:00,913456997,906255598,0,126.94.252.66,Alberta New Democratic Party,/* Party Leaders */
2019-09-28T02:35:49+00:00,918317848,918317795,0,Vanished user 95aac1187a60a2a91a531f7f540e9ceb0e5c354b,American Independent Party,Reverted 1 edit by [[Special:Contributions/2600:1010:B101:DE8:C262:F986:1937:42CC|2600:1010:B101:DE8:C262:F986:1937:42CC]] ([[User talk:2600:1010:B101:DE8:C262:F986:1937:42CC|talk]]) ([[WP:TW|TW]])
2019-12-19T06:38:52+00:00,931499601,929494584,0,Calcastor,Alberta New Democratic Party,Tone changes on the second paragraph
2019-11-15T17:00:26+00:00,926329112,925666428,0,206.219.255.152,Alberta New Democratic Party,corrected math error
2019-10-02T14:21:51+00:00,919225669,919163230,0,Helper201,Animal Politics EU,Not cited anywhere on the page. Please cite your claims with reliable sources.
2019-11-16T13:18:58+00:00,926448431,921349002,0,Robertius,Animal Politics EU,
2019-12-09T21:54:45+00:00,930047525,930008458,0,Drdpw,Associate Justice of the Supreme Court of the United States,"Reverted to revision 927469965 by [[Special:Contributions/Magidin|Magidin]] ([[User talk:Magidin|talk]]): Link to the person who made the appointment, clear and expected link ([[WP:TW|TW]])"
2019-12-18T08:21:39+00:00,931329156,925259218,0,InternetArchiveBot,Anti-Administration party,Bluelinking 2 books for [[WP:V|verifiability]].) #IABot (v2.1alpha3
2019-09-17T18:23:26+00:00,916221335,916109503,0,Monkbot,Barry Goldwater 1964 presidential campaign,[[User:Monkbot/task 16: remove replace deprecated dead-url params|Task 16]]: replaced (5×) / removed (0×) deprecated |dead-url= and |deadurl= with |url-status=;
2019-10-19T20:08:36+00:00,922076305,915841470,0,Tassedethe,Associate Justice of the Supreme Court of the United States,v2.02 - Repaired 1 link to disambiguation page - [[WP:DPL|(You can help)]] - [[The Brethren (book)]]
2019-09-15T15:53:55+00:00,915841470,915841366,0,Girth Summit,Associate Justice of the Supreme Court of the United States,Reverted 1 edit by [[Special:Contributions/2001:D08:D1:2C13:B874:E518:CE7F:92CD|2001:D08:D1:2C13:B874:E518:CE7F:92CD]] ([[User talk:2001:D08:D1:2C13:B874:E518:CE7F:92CD|talk]]) to last revision by Monkbot ([[WP:TW|TW]])
2019-10-20T17:19:58+00:00,922204484,921764938,0,Friendlyhistorian,Awami League,/* Jatiya Sangsad elections */
2019-10-26T19:54:36+00:00,923163247,922913020,0,Ltang789,Beauce (electoral district),"/* Beauce, 2019 Representation Order */"
2019-10-11T05:02:30+00:00,920674371,916221335,0,InternetArchiveBot,Barry Goldwater 1964 presidential campaign,Rescuing 1 sources and tagging 0 as dead.) #IABot (v2.0
2019-11-13T14:33:03+00:00,925978563,923163247,0,PKT,Beauce (electoral district),updated 2019 results and provided reference to Elections Canada site
2019-09-19T07:05:31+00:00,916504651,915624244,0,DemonDays64,Bloc Québécois,HTTPS security
2019-11-13T17:24:17+00:00,926000819,925903693,0,103.83.167.107,Awami League,
2020-01-04T00:50:49+00:00,933971892,932873425,0,Weelandlka,Bloc Québécois,/* Election of Ouellet and caucus revolt */ -update.
2019-12-28T18:22:02+00:00,932873425,932825105,0,Kawnhr,Bloc Québécois,rm stray bracket
2019-12-07T18:14:27+00:00,929710060,929456233,0,Jack Cox,Bloc Québécois,
2019-10-31T12:04:03+00:00,923883849,923874764,0,Vif12vf,Bloc Québécois,Reverted to revision 923822058 by [[Special:Contributions/CremationLily|CremationLily]] ([[User talk:CremationLily|talk]]) ([[WP:TW|TW]])
2019-09-15T02:36:18+00:00,915744135,905971426,0,Monkbot,British Columbia New Democratic Party,/* top */[[User:Monkbot/task 16: remove replace deprecated dead-url params|Task 16]]: replaced (1×) / removed (0×) deprecated |dead-url= and |deadurl= with |url-status=;
2019-12-16T19:43:10+00:00,931069047,931062871,0,Joeyconnick,British Columbia New Democratic Party,/* Current MLAs */ clarify
2019-09-29T21:34:27+00:00,918685219,918489805,0,Kozak4512,Brett Kavanaugh,un-necessary info removed since it had no consensus
2019-09-15T04:59:20+00:00,915760534,910878870,0,Monkbot,Bryan Caplan,[[User:Monkbot/task 16: remove replace deprecated dead-url params|Task 16]]: replaced (2×) / removed (0×) deprecated |dead-url= and |deadurl= with |url-status=;
2019-10-29T09:23:25+00:00,923560107,923146956,0,Activist,Brett Kavanaugh,Undid revision 923146956 by [[Special:Contributions/William M. Connolley|William M. Connolley]] (see Talk)
2019-09-15T08:54:59+00:00,915784843,902583331,0,Monkbot,Cable Communications Policy Act of 1984,[[User:Monkbot/task 16: remove replace deprecated dead-url params|Task 16]]: replaced (3×) / removed (0×) deprecated |dead-url= and |deadurl= with |url-status=;
2019-01-27T01:28:32+00:00,880366787,872414960,0,KolbertBot,Canada Party (2015),Bot: [[User:KolbertBot|HTTP→HTTPS]] (v485)
2019-11-29T18:48:07+00:00,928508220,926476718,0,184.148.66.14,Canadian Alliance,
2019-09-29T22:33:43+00:00,918695191,915784843,0,EdmundT,Cable Communications Policy Act of 1984,/* History */ Spelling
2019-08-30T19:51:54+00:00,913234166,913234003,0,Jbrown182002,Canadian Alliance,
2019-11-16T17:32:55+00:00,926476718,924330618,0,Citation bot,Canadian Alliance,"Alter: quote, template type. Add: isbn, chapter, jstor. Removed URL that duplicated unique identifier. Removed parameters. | You can [[WP:UCB|use this bot]] yourself. [[WP:DBUG|Report bugs here]].| Activated by [[User:Headbomb]] | via #UCB_webform"
2019-12-18T01:04:53+00:00,931276401,928508220,0,InternetArchiveBot,Canadian Alliance,Bluelinking 2 books for [[WP:V|verifiability]].) #IABot (v2.1alpha3
2019-12-09T14:07:55+00:00,929986150,929823571,0,Tasker United,Chair of the Federal Reserve,
2019-07-21T18:51:14+00:00,907269627,894808247,0,Wikiain,Category (Kant),/* The table of judgments */sp consistency - to 'e' not to 'e'
2019-12-08T13:19:39+00:00,929823554,929182104,0,Berean Hunter,Category (Kant),rv sock
2019-09-15T23:16:49+00:00,915908329,914886167,0,Monkbot,Chair of the Federal Reserve,[[User:Monkbot/task 16: remove replace deprecated dead-url params|Task 16]]: replaced (2×) / removed (0×) deprecated |dead-url= and |deadurl= with |url-status=;
2019-09-15T22:13:20+00:00,915900073,914165024,0,Monkbot,Centre-right coalition (Italy),[[User:Monkbot/task 16: remove replace deprecated dead-url params|Task 16]]: replaced (2×) / removed (0×) deprecated |dead-url= and |deadurl= with |url-status=;
2019-10-15T03:59:43+00:00,921327405,921327257,0,DocWatson42,Chair of the Federal Reserve,Performed minor cleanup.
2019-12-04T19:16:48+00:00,929274275,928449482,0,Citation bot,Centre-right coalition (Italy),Alter: title. Add: chapter-url. Removed or converted URL. Removed accessdate with no specified URL.  Some additions/deletions were actually parameter name changes.| You can [[WP:UCB|use this bot]] yourself. [[WP:DBUG|Report bugs here]].| Activated by [[User:Nemo bis]] | via #UCB_webform
2019-11-18T12:24:05+00:00,926743281,926341810,0,Jeff6045,Chega (political party),No source of liberalism.
2019-10-25T16:32:15+00:00,922991089,922697089,0,Fixmaster,Chega (political party),
2019-10-07T00:23:08+00:00,919976237,919974641,0,Drdpw,Chief Justice of the United States,Reverted [[WP:AGF|good faith]] edits by [[Special:Contributions/Jdavi333|Jdavi333]] ([[User talk:Jdavi333|talk]]): Unnecessary  ([[WP:TW|TW]])
2019-11-26T20:21:24+00:00,928099131,928086823,0,Drdpw,Chief Justice of the United States,"Reverted [[WP:AGF|good faith]] edits by [[Special:Contributions/198.0.97.51|198.0.97.51]] ([[User talk:198.0.97.51|talk]]): S. For Truman “MI”, see talk page discussion  ([[WP:TW|TW]])"
2019-12-08T15:18:06+00:00,929835834,929812056,0,Lancashire2789,Clement Attlee,
2019-11-27T18:30:25+00:00,928233792,928233516,0,El C,Christian Democratic Party (Bolivia),Reverted edits by [[Special:Contribs/181.188.177.62|181.188.177.62]] ([[User talk:181.188.177.62|talk]]) to last version by Karma1998
2020-01-01T10:45:55+00:00,933500495,933481915,0,DrKay,Clement Attlee,"over-repetitive, trivial, unsourced"
2019-08-16T02:09:35+00:00,911022249,842048770,0,BigDwiki,Communist Party of Nepal (United),clean up
2018-10-31T22:08:08+00:00,866687230,866687153,0,Sfs90,Christian Democratic Party (Bolivia),
2020-01-05T20:08:28+00:00,934298251,934183774,0,Tfdyrtswa3w4se5dr,Conservative Party of Canada,Scheer is still leader until a replacement is chosen.
2019-08-23T19:55:38+00:00,912184269,903809267,0,86.138.134.72,Communist Party – Alberta,/* Party leaders */Entered death year
2019-10-15T01:56:56+00:00,921311977,921194980,0,Ezhao02,Conservative Party of Canada,undid unexplained removal of cited content
2019-09-19T16:27:33+00:00,916584733,916584677,0,Nyook,Conservative Party of Canada,Reverted 1 edit by [[Special:Contributions/72.138.43.190|72.138.43.190]] ([[User talk:72.138.43.190|talk]]) to last revision by DemonDays64 ([[WP:TW|TW]])
2019-12-29T05:18:49+00:00,932959932,931885312,0,Mars3,Conservative Party of Canada,"This is not cited as the reason, he said he was stepping away to spend time with family and a party funds scandal was revealed at the time as well. It is unclear exactly what lead to his resignation."
2019-11-17T16:01:12+00:00,926615125,926614538,0,Josve05a,Democratic-Republican Party,Rescuing 4 sources and tagging 0 as dead.) #IABot (v2.0
2019-10-04T02:03:31+00:00,919500171,919465779,0,Orser67,Democratic-Republican Party,/* See also */ removed link that is now prominently linked earlier in article
2019-12-17T14:43:10+00:00,931190735,931190544,0,Hairy Dude,Democratic-Republican Party,"/* Final years, 1825–1829 */[[MOS:LQ]]"
2019-09-13T14:44:48+00:00,915482870,914826212,0,174.88.101.227,Democratic-Republican Party,
2019-09-09T15:55:59+00:00,914826212,914663183,0,174.134.33.163,Democratic-Republican Party,Added another secondary source citation.
2019-09-28T05:11:44+00:00,918337566,917803683,0,174.134.33.163,Democratic-Republican Party,Added primary source citation
2019-10-12T21:56:50+00:00,920944562,920679182,0,ThiagoBadra182,Democratic-Republican Party,
2019-11-04T06:46:08+00:00,924501087,924500324,0,Rjensen,Democratic-Republican Party,details
2019-10-16T13:24:27+00:00,921561944,916425987,0,J4lambert,Director of the Federal Bureau of Investigation,/* Federal Bureau of Investigation directors (1935–present) */
2019-10-15T17:06:51+00:00,921420818,921420359,0,Rjensen,Democratic-Republican Party,left and right came into use in 1790s left= support French Revolution and right = oppose it
2019-11-28T08:38:16+00:00,928320907,927734345,0,Joefromrandb,Director of the Federal Bureau of Investigation,/* James Comey */ lc
2019-11-01T14:53:03+00:00,924057365,924056621,0,157.167.54.180,Director of the Federal Bureau of Investigation,
2019-09-18T21:10:20+00:00,916425987,916217802,0,Monkbot,Director of the Federal Bureau of Investigation,[[User:Monkbot/task 16: remove replace deprecated dead-url params|Task 16]]: replaced (2×) / removed (0×) deprecated |dead-url= and |deadurl= with |url-status=;
2019-11-07T20:37:38+00:00,925095500,925095002,0,2607:FEA8:1DE0:F8:550A:7AFD:D59D:2284,Dominant-party system,/* Canada */Clarified the Canadian electoral system.
2019-10-12T19:29:35+00:00,920927671,920927105,0,WeifengYang,Dominant-party system,/* Europe */ Sweden: you can't have Social Democrats in both existing and past dominant party system category
2019-10-01T06:06:03+00:00,918981224,913906773,0,Mandarax,Eldridge Cleaver,Typo fixing
2019-09-03T23:34:12+00:00,913906773,910691477,0,BrownHairedGirl,Eldridge Cleaver,replace link to deleted [[Portal:African American]] with [[Portal:United States]]
2019-06-17T22:30:53+00:00,902303064,807778841,0,BD2412,Electoral history of Barry Goldwater,/* top */One-time conversion of links from moved articles to improve ease of automated parsing.
2019-10-18T23:19:22+00:00,921952622,921479857,0,MWD115,European Conservatives and Reformists,/* 2019 European Parliament elections */
2019-09-12T04:08:24+00:00,915257935,915257857,0,Grayfell,Douglas Murray (author),"/* Views */  Oops, overlink"
2019-10-17T08:42:55+00:00,921693501,920603122,0,77.43.47.179,European Conservatives and Reformists Party,/* Member parties */
2019-11-11T10:03:28+00:00,925634051,921952622,0,Cat Elevator,European Conservatives and Reformists,"Look at the pages of the member parties - the ones where ""Right-wing populism"" is mentioned in the ideology section have a total of 46 out of the 62 ECR seats. That is not a faction, but almost three fourths. Also, 30 of the 62 MEP's represent parties listed with ""Economic nationalism"", not ""...liberalism"". I'm editing to reflect that the group is no longer dominated by the British Conservatives, but the Polish Law and Justice."
2019-12-06T14:56:38+00:00,929547106,928204734,0,RJFF,European Conservatives and Reformists Party,"/* Members */ distinction between full members and ""regional partners"""
2019-09-11T14:29:36+00:00,915150644,915112843,0,Monkbot,European Conservatives and Reformists Party,[[User:Monkbot/task 16: remove replace deprecated dead-url params|Task 16]]: replaced (10×) / removed (0×) deprecated |dead-url= and |deadurl= with |url-status=;
2019-10-05T23:17:22+00:00,919809428,919809290,0,Kind Tennis Fan,Douglas Murray (author),Reference tidy.
2019-12-18T02:57:51+00:00,931292181,930616614,0,Mohatatou,European Conservatives and Reformists Party,/* Regional partners  */
2019-09-22T18:35:22+00:00,917198034,917111729,0,Pv21,European Parliament,/* Committees and delegations */
2019-09-17T11:52:23+00:00,916166961,915718166,0,Iamthinking2202,European Parliament,"/* Elections */ Updated paragraph about ""most recent Union-wide elections"" with 2019"
2019-11-02T21:39:45+00:00,924275933,924275801,0,85.49.209.188,European Parliament,
2019-10-14T10:42:30+00:00,921175337,920770446,0,Yakme,European Parliament,Reverted to revision 918636645 by [[Special:Contributions/Leptictidium|Leptictidium]] ([[User talk:Leptictidium|talk]]): Restore version previous to vandalism ([[WP:TW|TW]])
2019-10-11T19:03:05+00:00,920770446,920767623,0,92.232.189.176,European Parliament,
2019-10-23T20:12:49+00:00,922709161,922709015,0,Jay942942,Fidesz,"in the original quote, Orban concedes that some are not democracies."
2019-11-13T14:42:39+00:00,925979749,925950308,0,InternetArchiveBot,Fatherland Front (Austria),Bluelink 3 books for [[WP:V|verifiability]].) #IABot (v2.0) ([[User:GreenC bot|GreenC bot]]
2019-10-24T20:49:31+00:00,922868663,922868376,0,131.106.236.228,Fidesz,Undid revision 922868376 by [[Special:Contributions/131.106.236.228|131.106.236.228]] ([[User talk:131.106.236.228|talk]])
2019-11-02T15:04:15+00:00,924219115,923315648,0,Rekettye Balázs,Fidesz,
2019-10-21T23:48:13+00:00,922412566,922356226,0,KIENGIR,Fidesz,Undid revision 922356226 by [[Special:Contributions/193.52.138.58|193.52.138.58]] ([[User talk:193.52.138.58|talk]]) discussed long ago
2019-09-20T01:37:00+00:00,916671027,916657346,0,Nicocharb,Fidesz,It is a pretty extreme right party.
2019-11-23T21:33:12+00:00,927646445,927626022,0,Jay Hodec,Fidesz,"Undid revision 927626022 by [[Special:Contributions/51.6.85.154|51.6.85.154]] ([[User talk:51.6.85.154|talk]]) I don't think [[Christian right]] is a designation of a political ideology per se, but rather a sociopolitical tendency (though I might be wrong on this)."
2019-10-16T19:36:28+00:00,921613147,921409619,0,KIENGIR,Fidesz,Undid revision 921409619 by [[Special:Contributions/193.52.138.32|193.52.138.32]] ([[User talk:193.52.138.32|talk]]) r
2019-10-03T19:33:03+00:00,919443669,919295110,0,KIENGIR,Fidesz–KDNP,"not supported by the article, this alliance has no connection to the 19th century Hungarian nationalism"
2019-12-15T22:25:11+00:00,930928518,930760586,0,InternetArchiveBot,Fidesz–KDNP,Rescuing 1 sources and tagging 0 as dead.) #IABot (v2.0
2019-08-30T18:03:45+00:00,913221078,900930633,0,Citation bot,Firing Line (TV program),Alter: title. | You can [[WP:UCB|use this bot]] yourself. [[WP:DBUG|Report bugs here]].| Activated by [[User:Ost316]] | [[Category:South Carolina Educational Television‎]].
2019-10-04T23:39:19+00:00,919659506,913221078,0,Dhtwiki,Firing Line (TV program),correcting typo (via [[WP:JWB]])
2019-10-28T17:51:23+00:00,923457514,923445494,0,Nick.mon,Five Star Movement,
2019-12-30T20:52:15+00:00,933252796,933239067,0,Checco,Five Star Movement,MPs' update: former minister Fioramonti left the party too
2019-11-11T23:25:03+00:00,925728219,925612831,0,InternetArchiveBot,Free Soil Party,Bluelink 5 books for [[WP:V|verifiability]].) #IABot (v2.0) ([[User:GreenC bot|GreenC bot]]
2019-09-11T13:41:03+00:00,915144280,913546879,0,Deisenbe,Free Soil Party,/* Noted Free Soilers */ added smith
2019-09-20T23:48:08+00:00,916850779,915560578,0,Monkbot,French Section of the Workers' International,/* Fourth Republic */[[User:Monkbot/task 16: remove replace deprecated dead-url params|Task 16]]: replaced (2×) / removed (0×) deprecated |dead-url= and |deadurl= with |url-status=;
2019-09-19T20:09:40+00:00,916622064,916622015,0,El C,Free Soil Party,Reverted edits by [[Special:Contribs/204.100.211.13|204.100.211.13]] ([[User talk:204.100.211.13|talk]]) to last version by Deisenbe
2019-09-28T20:13:38+00:00,918465701,903775923,0,Nuretok,Goldwater Institute,Added membership at ALEC
2019-11-06T01:58:29+00:00,924807937,924590405,0,Greco22,Greek Solution,
2019-11-23T00:39:32+00:00,927523763,927523624,0,Neutrality,Greek Solution,"ref tweak, fmt"
2019-11-08T14:52:56+00:00,925204370,920396823,0,Sun Creator,History of conservatism in the United States,"[[WP:AWB/GF|General fixes]], [[WP:AWB/T|typo(s) fixed]]: However  → However,"
2019-10-09T14:43:10+00:00,920396823,918684401,0,Filedelinkerbot,History of conservatism in the United States,Bot: Removing [[c:File:Depression-stock-market-crash-1929.jpg]] ([[:File:Depression-stock-market-crash-1929.jpg|en]]). Deleted by [[:C:User:Racconish|Racconish]] (per [[Commons:Commons:Deletion requests/File:Depression-stock-market-crash-1929.jpg]]).
2019-12-27T23:01:15+00:00,932738521,932737920,0,2A01:114F:6E2:3000:C4A1:2918:34A5:5B47,Janusz Korwin-Mikke,/* Controversy */ Corrected adnotations so they are in correct places.
2019-10-13T03:55:02+00:00,920985451,918425374,0,Cheep,Janusz Korwin-Mikke,
2019-12-05T06:50:24+00:00,929349174,927767253,0,Renamed user 9g0c6hdrjgcnbszc2ehoi3vjsknfu595jy7puawectdew3c0iv,Janusz Korwin-Mikke,
2019-11-12T20:15:57+00:00,925863101,925114799,0,37.152.196.191,Janusz Korwin-Mikke,/* Private life */
2019-09-21T16:20:17+00:00,916968299,916199586,0,Monkbot,Japanese Communist Party,/* Membership */[[User:Monkbot/task 16: remove replace deprecated dead-url params|Task 16]]: replaced (1×) / removed (0×) deprecated |dead-url= and |deadurl= with |url-status=;
2019-10-11T13:22:40+00:00,920724722,916968299,0,Loup and Law,Japanese Communist Party,
2019-11-14T15:12:33+00:00,926149249,924978934,0,InternetArchiveBot,Japanese Communist Party,Bluelink 1 book for [[WP:V|verifiability]].) #IABot (v2.0) ([[User:GreenC bot|GreenC bot]]
2019-10-14T06:17:15+00:00,921152255,921102062,0,Flat Out,Japanese Communist Party,Reverted 1 edit by [[Special:Contributions/2601:143:8003:75F0:1D85:509E:21C5:57A|2601:143:8003:75F0:1D85:509E:21C5:57A]] ([[User talk:2601:143:8003:75F0:1D85:509E:21C5:57A|talk]]) to last revision by Loup and Law ([[WP:TW|TW]])
2019-10-19T10:52:30+00:00,922017578,921884217,0,Helper201,Japanese Communist Party,"One source is from 1992, so 27 years-old, the other is from 1972, and is thus 47 years-old. These are hardly suitable for judging how the party is in 2019. Under these times the party was under different leadership than it is today."
2019-12-29T14:43:22+00:00,933019028,932738521,0,Monkbot,Janusz Korwin-Mikke,/* External links */[[User:Monkbot/task 15: normalize lang icon templates|Task 15]]:  language icon template(s) replaced (3×);
2019-10-07T20:54:49+00:00,920130296,920130190,0,El C,Joe Clark,Reverted edits by [[Special:Contribs/74.14.50.229|74.14.50.229]] ([[User talk:74.14.50.229|talk]]) to last version by Unreal7
2019-10-03T00:19:07+00:00,919305386,917559595,0,Lattimer68,John Hospers,/* Education and career */
2019-12-18T01:07:00+00:00,931276693,930959566,0,InternetArchiveBot,Julie Payette,Bluelinking 1 books for [[WP:V|verifiability]].) #IABot (v2.1alpha3
2019-10-04T03:12:47+00:00,919508776,919480056,0,AnomieBOT,Julie Payette,"Rescuing orphaned refs (""child"" from rev 919256534)"
2019-10-04T11:21:55+00:00,919557885,918175519,0,Pvmoutside,Katie Hill,/* External links */ Category
2019-10-22T07:58:27+00:00,922459988,922186498,0,Karma1998,Labour Party (UK),
2019-11-30T19:50:30+00:00,928653910,927311035,0,MusikBot,Katie Hill,Removing protection templates from unprotected page ([[User:MusikBot/FixPP/FAQ|more info]])
2019-11-28T01:47:57+00:00,928286221,927381769,0,TDKR Chicago 101,L. Patrick Gray,
2019-09-21T17:55:27+00:00,916981904,914031208,0,Monkbot,L. Patrick Gray,/* References */[[User:Monkbot/task 16: remove replace deprecated dead-url params|Task 16]]: replaced (2×) / removed (0×) deprecated |dead-url= and |deadurl= with |url-status=;
2019-12-22T23:29:59+00:00,932027644,932021685,0,Bender the Bot,Labour Party (UK),"/* Founding (1860s–1890s) */HTTP → HTTPS for the [[BBC]], replaced: =http://www.bbc.co.uk/ → =https://www.bbc.co.uk/"
2019-09-27T14:02:24+00:00,918200982,918189793,0,Jamie Bradshaw,Labour Party (UK),/* Symbols */ Made 'red rose' link to its use as an ideological symbol
2019-10-07T15:59:46+00:00,920084988,919579220,0,Greenleader(2),Labour Party (UK),Stephen Hepburn MP suspended.
2019-11-09T18:24:39+00:00,925374297,925374172,0,GoodDay,Labour Party (UK),"Undid revision 925374172 by [[Special:Contributions/Spy-cicle|Spy-cicle]] ([[User talk:Spy-cicle|talk]])I did explain. The House as 650 seats, regardless of whether the party runs candidates in all of them"
2019-09-23T17:44:34+00:00,917403468,917399027,0,Vif12vf,Labour Party (UK),Reverted to revision 917379472 by [[Special:Contributions/Vif12vf|Vif12vf]] ([[User talk:Vif12vf|talk]]): Still needs sources and concensus!  ([[WP:TW|TW]])
2019-12-01T01:06:06+00:00,928691028,927118300,0,TiltuM,Landtag of Brandenburg,
2019-09-14T20:48:13+00:00,915701620,915007040,0,RL0919,Labour Party (UK),"citation cleanup and other fixes, [[WP:AWB/T|typo(s) fixed]]: Consequently → Consequently,"
2020-01-01T21:24:16+00:00,933577622,933568084,0,Woodlot,Labour Party (UK),/* Symbols */ spelling
2019-10-28T12:01:07+00:00,923413390,919094851,0,TiltuM,Landtag of Brandenburg,
2019-12-02T18:38:22+00:00,928951789,928778199,0,Barn Yarn,Landtag of Saxony,"To early, CDU-Green-SPD agreement must be finalized by the parties first. https://www.deutschland-kurier.org/sachsen-kenia-koalition-stellt-fuenfjahresplan-vor/"
2019-11-05T18:09:35+00:00,924745142,924744638,0,TiltuM,Landtag of Saxony,
2019-10-14T10:37:17+00:00,921174860,921130143,0,Vif12vf,League of Communists of Yugoslavia,Reverted 1 edit by [[Special:Contributions/14.201.117.108|14.201.117.108]] ([[User talk:14.201.117.108|talk]]) to last revision by Vif12vf ([[WP:TW|TW]])
2019-12-24T06:32:45+00:00,932213527,931997271,0,Niceguyedc,Landtag of Thuringia,v2.02 - Repaired 1 link to disambiguation page - [[WP:DPL|(You can help)]] - [[The Left]]
2019-12-12T13:13:17+00:00,930433627,930433113,0,Vif12vf,League of Communists of Yugoslavia,Much simpler and cleaner look.
2019-09-09T14:54:16+00:00,914817333,914808393,0,Vif12vf,Left Bloc (Portugal),Reverted to revision 914657580 by [[Special:Contributions/Vif12vf|Vif12vf]] ([[User talk:Vif12vf|talk]]) ([[WP:TW|TW]])
2019-09-22T16:06:29+00:00,917172741,916219601,0,27.32.165.237,League of Communists of Yugoslavia,
2019-10-31T03:17:18+00:00,923840834,921581648,0,95.95.16.142,Left Bloc (Portugal),Update number of MP after 2019 Madeira elections
2019-09-12T22:00:37+00:00,915377886,913652845,0,DuncanHill,Liberal Party (UK),/* Further reading */ somewhat misleading commentary
2019-11-14T22:00:27+00:00,926208204,926191513,0,AnomieBOT,Liberal Party (UK),Dating maintenance tags: {{Cn}}
2019-09-28T15:01:50+00:00,918413310,918413143,0,77.101.13.126,Liberal Party (UK),
2019-11-17T10:26:28+00:00,926581978,924782050,0,InternetArchiveBot,Liberal Republican Party (United States),Bluelink 1 book for [[WP:V|verifiability]].) #IABot (v2.0) ([[User:GreenC bot|GreenC bot]]
2019-11-05T22:26:32+00:00,924782050,924616272,0,Orser67,Liberal Republican Party (United States),"/* Original self-identified Liberal Republicans */ I see no need for having both this section and the ""prominent party members"" section. Perhaps they could be merged"
2019-09-29T00:27:40+00:00,918504041,918504012,0,Ezhao02,Liberal Party (UK),
2019-12-08T13:19:39+00:00,929823596,929597607,0,Berean Hunter,List of American conservatives,rv sock
2019-10-27T03:10:17+00:00,923212842,923196312,0,Frickeg,Libertarian Party (Australia),npov
2019-08-28T21:06:07+00:00,912937716,912672224,0,Pure Collector,List of American conservatives,Added death date of David H. Koch
2019-12-29T01:34:41+00:00,932932704,931644884,0,Ianblair23,Libertarian Party (Australia),/* External links */ removed navbox
2019-09-25T04:34:23+00:00,917724688,917724659,0,MAINEiac4434,List of United States senators from Arizona,/* References */
2019-11-21T14:26:39+00:00,927287756,926183963,0,MallonAllah12,List of United States senators from Arizona,/* Living former U.S. senators from Arizona */
2019-10-19T23:15:09+00:00,922097487,917163068,0,MallonAllah12,List of United States senators from South Carolina,/* List of living former U.S. senators from South Carolina */
2019-10-10T02:51:43+00:00,920485803,914486521,0,2601:241:301:4360:6C4D:2332:1835:418C,List of governors of South Carolina,/* Living former governors of South Carolina */
2019-09-14T20:27:14+00:00,915698842,911400566,0,Rich Farmbrough,List of United States senators from South Carolina,Caps or other fixes
2019-09-05T15:18:22+00:00,914162749,907775263,0,InternetArchiveBot,List of unsuccessful major party candidates for President of the United States,Bluelinking 2 books for [[WP:V|verifiability]].) #IABot (v2.1alpha3
2019-11-15T14:43:33+00:00,926311872,926252880,0,InternetArchiveBot,List of unsuccessful major party candidates for President of the United States,Bluelink 1 book for [[WP:V|verifiability]].) #IABot (v2.0) ([[User:GreenC bot|GreenC bot]]
2019-12-19T03:21:05+00:00,931478275,931478247,0,100.12.186.112,London Bridge,/* London Bridge in literature and popular culture */
2019-12-23T01:56:12+00:00,932045414,931478275,0,Bender the Bot,London Bridge,"/* External links */HTTP → HTTPS for the [[BBC]], replaced: [http://www.bbc.co.uk/ → [https://www.bbc.co.uk/ (2)"
2019-11-29T17:49:50+00:00,928502468,928493609,0,Sunshineisles2,London Bridge,No major edit activity on this page
2019-10-18T15:33:18+00:00,921890206,921887166,0,92.157.95.149,London Bridge,"Revision corrected (chapter ""Old"" London Bridge, completion by Isembert): 1 source kept, in the public domain (1826)"
2019-09-17T16:26:26+00:00,916204269,916203528,0,Mauls,London Bridge,/* Modern London Bridge {{anchor|New London Bridge|1973}} */
2019-10-27T05:42:04+00:00,923226940,923002143,0,Orser67,List of unsuccessful major party candidates for President of the United States,
2019-08-26T00:30:12+00:00,912495612,912495565,0,Girth Summit,London Bridge,Reverted 1 edit by [[Special:Contributions/Flarp22|Flarp22]] ([[User talk:Flarp22|talk]]) to last revision by Hammersfan ([[WP:TW|TW]])
2020-01-06T16:28:20+00:00,934451777,934451154,0,Eyeballfury,London Conservatives,/* Members of Parliament */Added names and constituencies of 2 new MPs from the 2019 cohort.
2019-07-03T22:12:45+00:00,904697248,904697016,0,HotIceCream,London Conservatives,/* London Assembly members */
2019-12-11T05:57:52+00:00,930249096,929783750,0,Doctor987654,Ludwig von Mises,
2019-10-26T09:25:26+00:00,923093292,923092999,0,JJMC89 bot III,Ludwig von Mises,Moving [[:Category:Austrian political theorists]] to [[:Category:Austrian political philosophers]] per [[Wikipedia:Categories for discussion/Log/2019 October 17#Category:Political theorists]]
2019-12-14T07:31:43+00:00,930694354,930694256,0,Olivia comet,Maxime Bernier,/* Formation of People's Party of Canada */
2019-11-02T19:54:33+00:00,924261601,924014294,0,Citing,Maxime Bernier,fix up intro a bit. removed excess wikilinks. add stuff on father's MP history and 2019 loss
2019-12-30T23:52:38+00:00,933275445,933275286,0,PerfectUtopia,Maxime Bernier,/* Post-leadership campaign */
2019-10-26T02:54:20+00:00,923061472,923060682,0,Citing,Maxime Bernier,/* Formation of People's Party of Canada */ add affiliation of beauce winner and tweak sentence structure
2019-10-22T21:21:37+00:00,922555183,922552267,0,Bradv,Maxime Bernier,Undid revision 922552267 by [[Special:Contributions/132.205.236.67|132.205.236.67]] ([[User talk:132.205.236.67|talk]]) unsourced; has Bernier actually resigned from his own party?
2019-09-22T20:07:42+00:00,917213664,917212453,0,Kawnhr,Maxime Bernier,/* top */ no need to note a common nickname
2019-11-19T16:34:29+00:00,926979009,926831705,0,Citing,Maxime Bernier,party and leadership still exist
2019-09-12T18:34:49+00:00,915350512,915236336,0,Weelandlka,Maxime Bernier,As a stated not in the source
2020-01-01T23:38:31+00:00,933594061,933594008,0,JzG,MediaWiki talk:Spam-whitelist,/* forbetterscience.com/ */ r
2019-10-18T06:07:37+00:00,921833610,921833494,0,Leventio,Maxime Bernier,/* Campaign for the Conservative leadership */ samea as alst
2019-12-29T22:59:26+00:00,933091265,933090903,0,Newslinger,MediaWiki talk:Spam-whitelist,/* About page of Veterans Today */ Added using [[User:Beetstra/SWH|SWHandler]]
2019-11-09T00:33:42+00:00,925275295,925210376,0,2601:643:867F:5370:EC75:AB1C:AD27:73DC,MediaWiki talk:Spam-whitelist,/* sciencepublishinggroup.com */ copyedit to avoid site/cite readability issue
2019-12-19T19:13:47+00:00,931575616,931446236,0,ClueBot III,MediaWiki talk:Spam-whitelist,Archiving 1 discussion to [[MediaWiki talk:Spam-whitelist/Archives/2019/11]]. (BOT)
2019-11-22T10:45:17+00:00,927415798,927389324,0,Coffeeandcrumbs,MediaWiki talk:Spam-whitelist,/* neighborhoodarchive.com */ Replying to Coffeeandcrumbs (using [[w:en:User:Enterprisey/reply-link|reply-link]])
2019-11-11T21:21:55+00:00,925712905,925623051,0,Yae4,MediaWiki talk:Spam-whitelist,/* Proposed additions to Whitelist (web pages to unblock) */ specific link at cbronline
2019-10-21T03:57:37+00:00,922283333,922213619,0,Beetstra,MediaWiki talk:Spam-whitelist,/* explore.org */ repair tracks
2019-09-09T08:52:44+00:00,914772388,914580977,0,ClueBot III,MediaWiki talk:Spam-whitelist,Archiving 1 discussion to [[MediaWiki talk:Spam-whitelist/Archives/2019/08]]. (BOT)
2019-12-09T07:02:34+00:00,929945763,929945605,0,Beetstra,MediaWiki talk:Spam-whitelist,/* Rolling shutter et al. */ OI
2020-01-08T03:48:37+00:00,934731536,934660835,0,JJMC89,MediaWiki talk:Spam-whitelist,/* Proposed additions to Whitelist (web pages to unblock) */ don't top post
2019-11-04T18:56:16+00:00,924583213,924527850,0,Beetstra,MediaWiki talk:Spam-whitelist,/* petition.parliament.uk/archived */ Replying to Robertm25 (using [[w:en:User:Enterprisey/reply-link|reply-link]])
2020-01-04T19:05:52+00:00,934094856,934094288,0,JzG,MediaWiki talk:Spam-whitelist,/* forbetterscience.com/ */ Replying to Garnhami (using [[w:en:User:Enterprisey/reply-link|reply-link]])
2019-12-14T02:29:15+00:00,930668976,930639081,0,Unbeatable101,MediaWiki talk:Spam-whitelist,/* We the People (petitioning system) */ new section
2020-01-05T11:14:43+00:00,934224329,934200859,0,JzG,MediaWiki talk:Spam-whitelist,/* pornhub.com/insights */ Replying to 84.46.52.205 (using [[w:en:User:Enterprisey/reply-link|reply-link]])
2019-11-25T11:27:57+00:00,927884245,927883782,0,Beetstra,MediaWiki talk:Spam-whitelist,/* petition.parliament.uk/archived */ Added using [[User:Beetstra/SWH|SWHandler]]
2019-10-30T03:46:27+00:00,923687621,923687525,0,Beetstra,MediaWiki talk:Spam-whitelist,/* omicsonline.org */ Added using [[User:Beetstra/SWH|SWHandler]]
2019-09-22T13:06:12+00:00,917143830,916557823,0,ClueBot III,MediaWiki talk:Spam-whitelist,Archiving 1 discussion to [[MediaWiki talk:Spam-whitelist/Archives/2019/08]]. (BOT)
2019-12-13T04:32:54+00:00,930536808,930450782,0,ClueBot III,MediaWiki talk:Spam-whitelist,Archiving 1 discussion to [[MediaWiki talk:Spam-whitelist/Archives/2019/11]]. (BOT)
2020-01-05T21:55:22+00:00,934314329,934224329,0,ClueBot III,MediaWiki talk:Spam-whitelist,Archiving 1 discussion to [[MediaWiki talk:Spam-whitelist/Archives/2019/12]]. (BOT)
2019-11-03T11:32:04+00:00,924361201,924152787,0,Sparrow (2019),MediaWiki talk:Spam-whitelist,/* ritualabuse.us */
2019-09-14T23:28:08+00:00,915721620,915525575,0,JzG,MediaWiki talk:Spam-whitelist,/* Two links to articles at CBR */ t
2019-11-04T02:03:39+00:00,924472272,924463017,0,Ravensfire,MediaWiki talk:Spam-whitelist,/* youtu.be/V5iLXnpPhZ8 */ Replying to SilentRevisions (using [[w:en:User:Enterprisey/reply-link|reply-link]])
2019-12-02T14:37:52+00:00,928920643,923931481,0,2601:40F:C100:759F:F:2F3B:B6EA:99B7,Mises Institute,/* Method of economics */
2019-10-31T18:12:43+00:00,923931481,923811043,0,Krapulat,Mises Institute,Nonprofits are tax exempt or charitable
2019-12-21T15:34:43+00:00,931835873,928486401,0,Tekle Mariam,Movimiento al Socialismo,2015–2020 Term of the Plurinational Legislative Assembly
2019-11-05T09:06:21+00:00,924683652,924219020,0,Pansarbaggen,Movimiento al Socialismo,/* Parliament */
2019-11-19T10:39:55+00:00,926938811,926827288,0,Karma1998,Movimiento al Socialismo,
2019-09-22T21:10:03+00:00,917224295,914495764,0,Monkbot,Movimiento al Socialismo,/* Member organizations */[[User:Monkbot/task 16: remove replace deprecated dead-url params|Task 16]]: replaced (1×) / removed (0×) deprecated |dead-url= and |deadurl= with |url-status=;
2019-11-29T15:16:05+00:00,928486401,928162669,0,Carwil,Movimiento al Socialismo,end date of governance; fix wording issue; add municipal dominance
2019-11-09T21:22:58+00:00,925395082,922943846,0,Jay942942,National Party of Honduras,
2019-10-05T07:10:03+00:00,919699655,919334480,0,GünniX,National Democratic Party (United States),Reflist
2019-09-06T06:21:30+00:00,914262428,904615046,0,Jeff6045,National Party of Honduras,Updated national party's political position.
2019-06-18T18:59:30+00:00,902427125,880285709,0,BD2412,National Democratic Party (United States),One-time conversion of links from moved articles to improve ease of automated parsing.
2019-10-30T22:40:37+00:00,923811118,923093081,0,David Gerard,Murray Rothbard,"rm vdare - deprecated source, should not be used or trusted for anything https://en.wikipedia.org/wiki/Wikipedia:Reliable_sources/Perennial_sources#VDARE"
2019-12-26T14:20:26+00:00,932518331,932517985,0,Heroeswithmetaphors,National Review,/* Climate change */links
2019-12-31T12:57:45+00:00,933358302,933344568,0,Vif12vf,Movimiento al Socialismo,Reverted to revision 931835873 by [[Special:Contributions/Tekle Mariam|Tekle Mariam]] ([[User talk:Tekle Mariam|talk]]) ([[WP:TW|TW]])
2019-11-04T23:32:09+00:00,924621254,924484970,0,Strgydides,Murray Rothbard,"/* Race, gender and civil rights */"
2019-09-09T19:59:01+00:00,914862008,913561225,0,Thomasmeeks,National Review,"/* Notable current contributors */ + * [[John McCormack (journalist)|John McCormack]] [new page], ''N.R.'' [[Washington, D.C.]] [[Correspondent#Capitol correspondent|correspondent]]"
2019-10-24T22:26:40+00:00,922880061,922826586,0,47.153.227.82,Movimiento al Socialismo,/* External links */
2019-09-30T15:38:32+00:00,918849274,918438033,0,QueerEcofeminist,National Socialist Japanese Workers' Party,Added {{[[Template:More citations needed|More citations needed]]}} tag to article ([[WP:TW|TW]])
2019-11-22T04:37:15+00:00,927385744,927226133,0,24.198.209.172,National Socialist Japanese Workers' Party,/* References */
2019-10-04T22:56:29+00:00,919655085,919099264,0,Kind Tennis Fan,Neoconservatism,date formats per [[MOS:DATEFORMAT]] by [[WP:MOSNUMscript|script]]
2019-09-13T22:03:15+00:00,915543420,914710293,0,Thenightaway,Neoconservatism,/* Further reading */ study
2019-11-10T22:49:32+00:00,925564329,925323567,0,Vycl1994,Neoconservatism,/* Leo Strauss and his students */
2019-11-22T15:53:48+00:00,927448640,927447805,0,Jay942942,Neoconservatism,/* Public figures */
2020-01-05T15:41:08+00:00,934256982,934256888,0,Jay942942,Neoconservatism,fix
2019-10-15T01:00:39+00:00,921302939,921105232,0,2605:6001:E441:F900:FC51:75E4:4DF7:BDD1,Neoconservatism,
2019-11-06T21:01:09+00:00,924937380,924652079,0,David Gerard,Neoconservatism,"rm wnd - deprecated source, should not be used or trusted for any claim https://en.wikipedia.org/wiki/Wikipedia:Reliable_sources/Perennial_sources#WorldNetDaily"
2019-09-08T23:20:08+00:00,914710293,913150521,0,InternetArchiveBot,Neoconservatism,Bluelinking 1 books for [[WP:V|verifiability]].) #IABot (v2.1alpha3
2020-01-07T15:35:55+00:00,934624560,934624148,0,Stancj1,Neoconservatism,/* History */
2019-10-21T22:24:21+00:00,922402666,922402391,0,Dorsetonian,Neoconservatism,Undid revision 922402391 by [[Special:Contributions/96.44.28.105|96.44.28.105]] ([[User talk:96.44.28.105|talk]]) restore sourced content
2019-10-20T12:54:50+00:00,922174822,922174770,0,Vif12vf,Nepal Communist Party,Reverted to revision 920810815 by [[Special:Contributions/Vif12vf|Vif12vf]] ([[User talk:Vif12vf|talk]]) ([[WP:TW|TW]])
2019-12-08T13:19:38+00:00,929823584,929795262,0,Berean Hunter,Nepal Communist Party,rv sock
2019-10-12T00:49:23+00:00,920810815,920810286,0,Vif12vf,Nepal Communist Party,Reverted to revision 917794496 by [[Special:Contributions/Vif12vf|Vif12vf]] ([[User talk:Vif12vf|talk]]) ([[WP:TW|TW]])
2019-08-30T16:46:01+00:00,913210923,913207910,0,Vif12vf,Nepal Communist Party,Reverted to revision 912081629 by [[Special:Contributions/El C|El C]] ([[User talk:El C|talk]]) ([[WP:TW|TW]])
2019-12-24T14:25:34+00:00,932254438,932138013,0,181.162.59.79,New Democratic Party,
2019-11-26T16:48:13+00:00,928070696,928051705,0,31.168.100.81,Nepal Communist Party,party position
2019-11-21T18:20:00+00:00,927316122,927316024,0,Helper201,New Democratic Party,Grammar.
2019-11-05T02:40:28+00:00,924646790,924498187,0,The Four Deuces,New Democratic Party,The BC NDP is not a separate party but a division of the NDP of Canada
2019-10-26T19:27:11+00:00,923159866,923032305,0,Chargh,New Democratic Party,/* 2019 election */ Added additional citation
2020-01-04T02:30:33+00:00,933984557,933942877,0,SolTrek,New Democratic Party,
2019-10-29T18:44:23+00:00,923622432,923620620,0,Helper201,New Democratic Party,All claims should be cited with a reliable supporting source. This is no exception.
2019-09-25T09:12:36+00:00,917752413,917752353,0,Richhaddon,Opinion polling for the 2019 United Kingdom general election,/* 2019 */
2019-12-08T13:21:59+00:00,929823818,929823588,0,Berean Hunter,People's Party of Canada,Reverted to revision 929781904 by [[Special:Contributions/삭은사과|삭은사과]] ([[User talk:삭은사과|talk]]): Rv further ([[WP:TW|TW]])
2019-12-24T13:14:35+00:00,932248535,932174508,0,LTFC 95,Opinion polling for the 2019 United Kingdom general election,/* 2019 */ italics
2019-12-01T17:38:10+00:00,928789247,928789027,0,Vanilla Wizard,People's Party of Canada,formatting
2019-10-27T04:52:18+00:00,923223305,923221167,0,Weelandlka,People's Party of Canada,Undid revision 923218978 by [[Special:Contributions/Weelandlka|Weelandlka]] ([[User talk:Weelandlka|talk]])
2019-09-13T17:06:53+00:00,915503613,915502922,0,Weelandlka,People's Party of Canada,
2019-10-22T21:07:43+00:00,922553401,922548926,0,Yeungkahchun,People's Party of Canada,/* Electoral results */
2019-11-23T19:15:15+00:00,927629339,925908929,0,Tktru,People's Party of Canada,
2019-09-23T06:15:27+00:00,917302659,916963963,0,WereSpielChequers,People's Party of Canada,typo
2019-05-01T10:54:12+00:00,894999241,894996677,0,Northamerica1000,Portal:Business/Did you know/4,ce
2019-12-08T13:19:39+00:00,929823546,927196293,0,Berean Hunter,Portal:Business/Did you know/December 2006,rv sock
2019-10-21T12:27:41+00:00,922325356,922324722,0,Weelandlka,People's Party of Canada,Apart from the fact that immigration reform is not a listed political ideology; avoid using the using the platform as a source [[Wikipedia:No original research#Primary|Wikipedia:PRIMARY]]
2019-11-11T02:48:42+00:00,925594747,925532877,0,Biogeographist,Praxeology,"Reverted to revision 924866208: there are too many inappropriate editorial choices in these edits: this article is about multiple meanings of praxeology, not just the Austrian School interpretation, so the Mises Institute is not the ""official website"" of this article subject; praxeology does not appear in any of the added navboxes; and adding the geocoordinates of the Mises Institute to this article borders on vandalism"
2019-11-27T19:58:57+00:00,928245200,922759948,0,184.148.66.14,Progressive Conservative Party of Canada,
2019-10-24T03:53:57+00:00,922759948,922759918,0,TrailBlzr,Progressive Conservative Party of Canada,Undid revision 922684460 by [[Special:Contributions/Consta132|Consta132]] ([[User talk:Consta132|talk]])
2019-07-29T00:18:26+00:00,908323190,902232520,0,Citation bot,"Progressive Party (United States, 1948–1955)","Add: work, isbn. Removed URL that duplicated unique identifier. Removed accessdate with no specified URL. Removed parameters.  Some additions/deletions were actually parameter name changes.| You can [[WP:UCB|use this bot]] yourself. [[WP:DBUG|Report bugs here]].| Activated by [[User:Chris Capoccia]] | [[Category:Pages using citations with accessdate and no URL]]."
2019-12-02T19:29:47+00:00,928958633,928309881,0,Aboudaqn,"Progressive Party (United States, 1948–1955)",/* Support in New York from ALP */ typo in van Kleeck
2019-12-22T03:30:12+00:00,931911624,928958633,0,Ionol,"Progressive Party (United States, 1948–1955)",/* Prominent supporters */
2019-12-03T06:31:17+00:00,929033163,925451690,0,2601:449:8400:1700:C404:F438:BC8C:102D,Radical Democracy Party (United States),/* Cleveland convention */
2019-08-07T10:27:33+00:00,909746387,909708139,0,Vif12vf,Radical Democracy Party (United States),Reverted to revision 902410003 by [[Special:Contributions/BD2412|BD2412]] ([[User talk:BD2412|talk]]) ([[WP:TW|TW]])
2019-07-03T03:58:28+00:00,904587453,892042914,0,BrownHairedGirl,Radical Party of Chile,"[[WP:ELLINKS]] (25/25): [[Chilean presidential election, 1866]] → [[1866 Chilean presidential election]]; [[Chilean presidential election, 1871]] → [[1871 Chilean presidential election]]; [[Chilean presidential election, 1876]] → [[1876 Chilea"
2019-09-30T12:37:16+00:00,918817395,917197751,0,110.34.0.136,Rastriya Janata Party Nepal,
2019-12-08T13:19:39+00:00,929823572,926159467,0,Berean Hunter,Rastriya Janata Party Nepal,rv sock
2019-12-08T13:19:39+00:00,929823553,929099424,0,Berean Hunter,Radical Party of Chile,rv sock
2019-11-28T03:39:04+00:00,928297491,927875926,0,184.148.66.14,Reform Party of Canada,
2019-12-19T23:56:38+00:00,931608108,931608047,0,64.229.95.179,Reform Party of Canada,
2019-11-17T22:18:08+00:00,926662827,926662598,0,Bridget,Reform Party of Canada,Reverted to revision 924330514 by [[Special:Contributions/QueensDivision|QueensDivision]] ([[User talk:QueensDivision|talk]]): Restore original ([[WP:TW|TW]])
2019-08-30T19:54:40+00:00,913234537,912288436,0,Jbrown182002,Reform Party of Canada,
2019-11-25T09:48:43+00:00,927875926,926662827,0,Robevans123,Reform Party of Canada,/* 1997 election */ copy edit
2019-12-19T04:53:40+00:00,931488435,928543089,0,InternetArchiveBot,Saskatchewan New Democratic Party,Bluelinking 1 books for [[WP:V|verifiability]].) #IABot (v2.1alpha3
2019-10-22T15:04:05+00:00,922505613,922444556,0,Bearcat,Scott Brison,not an MP anymore
2019-08-02T18:00:21+00:00,909045403,906816786,0,Ec1801011,Serbian Progressive Party,
2019-12-06T19:22:13+00:00,929578467,924716351,0,Leotext,Richard Lehoux,/* Candidate for 2019 federal election */
2019-11-05T14:27:35+00:00,924716351,924014281,0,Weelandlka,Richard Lehoux,The framing of the tweets comes off as editorializing which is discouraged on Wikipedia.
2019-11-08T00:42:38+00:00,925125791,923112155,0,174.88.77.85,Serbian Progressive Party,
2019-09-22T02:14:22+00:00,917060353,917055907,0,Khoshhat,Saskatchewan New Democratic Party,/* Co-operative Commonwealth Federation (Saskatchewan Section) */ doesn't make any sense!
2019-09-30T12:31:59+00:00,918816576,918816209,0,110.34.0.136,"Samajbadi Party, Nepal (2019)",
2019-09-22T07:56:56+00:00,917099516,909045403,0,Hydromania,Serbian Progressive Party,"Importing Wikidata [[Wikipedia:Short description|short description]]: ""Political party"" ([[User:Galobtter/Shortdesc helper|Shortdesc helper]])"
2019-12-05T17:22:08+00:00,929410793,929410755,0,64.229.95.179,Serbian Progressive Party,
2019-11-18T00:32:20+00:00,926678497,926677579,0,Ezhao02,Serbian Progressive Party,
2019-09-18T06:47:24+00:00,916305239,904842073,0,Monkbot,Social Democratic Movement,[[User:Monkbot/task 16: remove replace deprecated dead-url params|Task 16]]: replaced (2×) / removed (0×) deprecated |dead-url= and |deadurl= with |url-status=;
2019-09-26T03:20:32+00:00,917917465,905510765,0,Monkbot,Scott Brison,[[User:Monkbot/task 16: remove replace deprecated dead-url params|Task 16]]: replaced (6×) / removed (0×) deprecated |dead-url= and |deadurl= with |url-status=;
2019-11-26T03:40:42+00:00,927999330,927918541,0,73.36.249.42,Social Democratic Movement,
2019-07-04T23:08:57+00:00,904842188,890513351,0,Pipenavis,Solidarity Civic Unity,
2019-09-06T21:30:13+00:00,914350570,903969895,0,Mccapra,Social Democratic Party of Austria,"/* See also */ Adding link to orphaned article, Wikiproject Orphanage: [[Wikipedia:ORPHAN|You can help!]]"
2019-09-28T21:38:11+00:00,918480021,904842188,0,Tom.Reding,Solidarity Civic Unity,[[:Category:CS1 errors: deprecated parameters]]: migrate 1/1 |dead-url= to |url-status=; minor cleanup; [[WP:GenFixes]] on
2019-10-24T13:23:22+00:00,922809489,919711293,0,82.43.223.204,Social Democratic Party of Austria,Rvv.
2019-12-10T10:18:15+00:00,930117343,927348045,0,87.208.231.54,States General of the Netherlands,/* Kingdom of the Netherlands */  happens -> takes place
2019-11-21T22:45:24+00:00,927348045,927347985,0,184.145.49.115,States General of the Netherlands,/* Oldest living members of the States General */
2019-10-07T20:48:38+00:00,920129359,917899591,0,Peter NYC,States General of the Netherlands,Rutte government lost majority after one representative became an independent. ref = Politico Europe.
2019-10-09T19:42:15+00:00,920435946,918722815,0,BrownHairedGirl,Strom Thurmond,replace links to deleted portals: [[Portal:South Carolina]] → [[Portal:United States]]
2020-01-02T11:03:43+00:00,933669743,933669457,0,Deisenbe,Strom Thurmond,/* Elected to the Senate and 1950s */ Spelling/grammar/punctuation correction
2019-11-30T06:06:42+00:00,928576008,928236734,0,68.227.160.152,Strom Thurmond,
2019-09-24T11:35:33+00:00,917561654,917149240,0,Adavidb,Strom Thurmond,"clean up, incl. any deadurl tags"
2019-12-12T21:22:56+00:00,930490899,930487838,0,David Crayford,Talk:2019 London Bridge stabbing,/* Bullet ricochet */ probably
2018-09-21T23:51:33+00:00,860625419,859568308,0,79.36.15.23,Taxpayers Party of New York,
2019-10-31T16:56:13+00:00,923920926,923817422,0,Rich Farmbrough,Tea Party Caucus,/* top */Cite cleanup
2019-10-04T13:50:29+00:00,919579462,918248636,0,222.153.188.223,Tea Party Caucus,Undid revision 902481156 by [[Special:Contributions/98.124.40.50|98.124.40.50]] ([[User talk:98.124.40.50|talk]])
2019-12-20T10:13:05+00:00,931662624,928299618,0,Urve,Tea Party Caucus,/* House */ Wilson was wrongly placed under Nebraska
2019-06-17T13:21:37+00:00,902231840,898089884,0,BD2412,Template:Barry Goldwater,/* top */One-time conversion of links from moved articles to improve ease of automated parsing.
2019-10-18T20:31:23+00:00,921930605,921906964,0,GreenRunner0,Together Gibraltar,2019 election complete
2019-11-10T14:18:03+00:00,925499412,925403100,0,Autospark,Together Gibraltar,Let's just stick with the ideologies which have some referencing behind them...
2019-12-08T13:19:39+00:00,929823547,928236575,0,Berean Hunter,Template:Strom Thurmond series,rv sock
2019-12-13T18:53:03+00:00,930619236,930589959,0,Theprussian,UK Independence Party,GE update
2019-10-31T08:56:26+00:00,923867212,923819503,0,Filelakeshoe,UK Independence Party,/* Batten and Braine's Leadership and Association with Far-Right */ MOS
2019-12-22T05:27:19+00:00,931919977,931311745,0,GoodDay,United Conservative Party,/* Caucus */
2019-12-01T06:04:26+00:00,928721311,928718851,0,Fourzero1,United Conservative Party,Wrong info corrected
2019-12-08T13:19:39+00:00,929823544,929099520,0,Berean Hunter,User talk:85.255.232.163,rv sock
2019-11-24T12:15:57+00:00,927734251,927707198,0,Coltsfan,User talk:Factsinwiki,
2019-09-18T18:59:46+00:00,916404023,916352268,0,Vif12vf,User talk:Vif12vf,/* American Nazi Party */
2019-09-11T10:26:36+00:00,915122977,915118071,0,Vif12vf,User talk:Vif12vf,/* Preferably edit the template! */
2019-10-12T11:02:05+00:00,920861207,920473224,0,JD3191,Uxbridge and South Ruislip (UK Parliament constituency),"/* History */ Amended the contradiction in the paragraph; an increase (or decrease) in a single party's vote share is not 'swing' in the proper sense. The first sentence, however, has the proper concept of swing."
2019-09-11T16:44:31+00:00,915168916,915168804,0,Escape Orbit,Whig Party (United States),Reverted 1 edit by [[Special:Contributions/216.107.203.147|216.107.203.147]] ([[User talk:216.107.203.147|talk]]) to last revision by Ken Gallager
2019-12-19T23:53:48+00:00,931607734,931600462,0,Bilorv,Uxbridge and South Ruislip (UK Parliament constituency),Reverted 1 edit by [[Special:Contributions/2003:C2:F0E:2000:A591:14CC:FBE0:828F|2003:C2:F0E:2000:A591:14CC:FBE0:828F]] ([[User talk:2003:C2:F0E:2000:A591:14CC:FBE0:828F|talk]]): Joke ([[WP:TW|TW]])
2019-11-19T16:11:59+00:00,926973677,926973561,0,209.237.105.108,Whig Party (United States),
2019-11-05T21:58:24+00:00,924778423,924759810,0,AnomieBOT,Wildrose Party,Dating maintenance tags: {{Cn}}
2019-09-19T04:38:20+00:00,916487435,913610923,0,Monkbot,Wildrose Party,[[User:Monkbot/task 16: remove replace deprecated dead-url params|Task 16]]: replaced (10×) / removed (0×) deprecated |dead-url= and |deadurl= with |url-status=;
2019-08-01T10:33:06+00:00,908841163,857352108,0,98.124.36.228,Wildrose Party of Alberta,
2019-10-07T04:27:50+00:00,920005624,918133318,0,SunCrow,William F. Buckley Jr.,/* Feud with Gore Vidal */
2019-12-17T23:08:40+00:00,931260614,929928024,0,InternetArchiveBot,William F. Buckley Jr.,Bluelinking 3 books for [[WP:V|verifiability]].) #IABot (v2.1alpha3
2019-11-16T20:23:05+00:00,926498857,926488369,0,Comatmebro,William F. Buckley Jr.,Reverted 1 edit by [[Special:Contributions/35.3.4.11|35.3.4.11]] ([[User talk:35.3.4.11|talk]]) to last revision by Elizium23 ([[WP:TW|TW]])
2019-09-12T23:56:26+00:00,915390053,909734781,0,Neighborhood Review,William F. Buckley Jr. bibliography,/* Non-fiction */  added links
2019-12-08T13:19:39+00:00,929823556,929604497,0,Berean Hunter,William F. Buckley Jr. bibliography,rv sock
2019-11-26T15:33:13+00:00,928061555,928060300,0,Deisenbe,William Lloyd Garrison,/* top */ moved some text back
2019-10-13T09:01:56+00:00,921011401,912256495,0,FrescoBot,William McChesney Martin,Bot: [[User:FrescoBot/Links|link syntax]]
2019-09-27T16:04:50+00:00,918221189,918220984,0,Shaun,William Lloyd Garrison,Reverted edits by [[Special:Contribs/40.139.242.178|40.139.242.178]] ([[User talk:40.139.242.178|talk]]) to last version by Shaun
2019-01-16T21:33:16+00:00,878778323,873893887,0,Rontrigger,1922 United States Senate elections,/* Gains and losses */
2018-10-29T02:35:36+00:00,866227961,860801366,0,Calibrador,1952 United States Senate election in Arizona,
2019-08-22T02:17:18+00:00,911924397,911521602,0,BitterGiant,1948 United States presidential election,
2019-04-29T22:56:16+00:00,894773555,894208983,0,2001:5B0:4CD6:8AE8:C8FF:169E:7957:5379,1948 United States presidential election,
2018-12-20T05:16:20+00:00,874581431,873722232,0,BlueShirtz,1948 United States presidential election,updated links to the 1944 and 1952 election pages
2018-09-26T21:40:30+00:00,861361702,858189791,0,Wow,1948 United States presidential election,relate
2018-10-29T02:35:19+00:00,866227926,860801348,0,Calibrador,1958 United States Senate election in Arizona,
2018-09-27T02:23:36+00:00,861390401,861361569,0,2607:FEA8:A2A0:9F6:8581:42C8:D60A:BFEE,1960 United States presidential election,
2019-05-22T15:41:11+00:00,898279925,896907559,0,96.77.69.81,1960 United States presidential election,/* Alabama */ copyedit
2019-02-11T03:18:29+00:00,882752992,880682425,0,Loperas,1960 United States presidential election,"Removed Jon Edwards link. The page previously created a hyperlink to John Edwards, the former senator and vice presidential candidate. However, he was not a panelist for this debate, as he was seven at the time. Rather, the panelist was a Jon Edwards who worked for ABC news and does not have his own wikipedia article."
2019-04-08T17:13:21+00:00,891547057,890939194,0,AlexEng,1960 United States presidential election,Change description to match actual color used in map
2019-07-14T08:23:05+00:00,906195567,906195424,0,2601:1C0:4600:E711:D8DE:C18F:5D47:B732,1960 United States presidential election,/* Debates */
2018-09-23T22:33:44+00:00,860911805,859690103,0,142.160.89.97,1960 United States presidential election,Fmt per [[MOS:NUM]]
2019-06-11T06:17:16+00:00,901331316,873896402,0,73.110.37.60,1960 United States Senate election in South Carolina,
2019-02-28T21:03:20+00:00,885567268,885105790,0,2600:100C:B012:1680:8D05:F6D:9DA6:F95F,1960 United States presidential election,
2019-03-11T05:52:16+00:00,887201327,885742927,0,2001:5B0:4CD6:D358:716E:EEC6:6398:9467,1960 United States presidential election,New Jersey was the tipping point.
2019-01-04T20:46:23+00:00,876840452,873723294,0,Bellerophon5685,1964 Republican National Convention,/* External links */
2019-02-12T15:24:22+00:00,882981918,879573882,0,Arjayay,1960 United States presidential election in Illinois,Duplicate word removed
2018-09-28T16:15:39+00:00,861598966,860801438,0,GreenC bot,1964 Republican National Convention,Rescued 1 archive link; remove 1 link. [[User:GreenC/WaybackMedic_2.1|Wayback Medic 2.1]]
2019-08-15T09:31:56+00:00,910908903,901806674,0,Scottyoak2,1960 United States presidential election in Illinois,v2.01 - [[WP:WCW]] project (Link equal to linktext)
2018-12-17T20:48:17+00:00,874209132,873723308,0,Timrollpickering,1964 Republican Party presidential primaries,"per [[WP:CFDS]], replaced: Category:United States presidential primaries, 1964 → Category:1964 United States presidential primaries"
2019-12-08T03:40:42+00:00,929772671,928970541,0,Snoopy12000,1964 United States presidential election,/* Assassination of President John F. Kennedy */
2019-04-14T00:06:50+00:00,892358353,891217371,0,2406:3003:2076:F2:2C8D:A308:DF14:8CBF,1964 United States presidential election,/* Results */
2019-07-25T05:14:11+00:00,907771130,901806076,0,Wow,1964 Republican National Convention,common name
2018-04-20T17:20:46+00:00,837411776,801715071,0,68.69.61.20,1965 New York City mayoral election,
2018-08-27T03:25:57+00:00,856715309,811013957,0,Wow,1968 United States Senate election in Arizona,
2018-12-06T19:27:30+00:00,872346194,863418793,0,TheSandBot,1966 United States Senate election in South Carolina,"TheSandBot moved page [[United States Senate election in South Carolina, 1966]] to [[1966 United States Senate election in South Carolina]]: Moving page per result of [[Special:Diff/869750233|RfC on election/referendum page naming format]] using [[User:TheSandBot| TheSandBot]]. Questions? See [[Special:Diff/869750233|the RfC]] or [[User talk:TheSandDoctor|msg TSD!]] ([[Wikipedia:Bots/Requests for approval/TheSandBot|BRFA]]; please mention that this is task #1!))"
2019-07-08T21:58:05+00:00,905401837,904713672,0,GreenC bot,1964 United States presidential election,Rescued 1 archive link. [[User:GreenC/WaybackMedic_2.5|Wayback Medic 2.5]]
2019-03-17T21:16:56+00:00,888240174,887021645,0,73.93.152.153,1974 United States Senate elections,/* Wisconsin */
2019-05-17T15:40:06+00:00,897518548,888240174,0,Trappist the monk,1974 United States Senate elections,/* New Hampshire */[[User:Monkbot/task_14: repair improper use of publisher params in cs1 templates|Task 14]]: (developmental testing):  repair improper use of publisher params in cs1 templates (1×);
2019-08-06T02:21:01+00:00,909543450,909540529,0,Randomstaplers,1974 United States Senate elections,
2019-01-25T16:37:54+00:00,880140968,873897641,0,71.105.239.150,1980 United States Senate election in Arizona,
2019-02-12T07:58:53+00:00,882937934,882937709,0,Popcorn9,2000 Canadian federal election,
2019-10-06T17:26:54+00:00,919922753,914784654,0,WikiBunny2K1,2000 Canadian federal election,Resized map
2018-12-03T20:50:27+00:00,871848573,871848462,0,William Avery,Adam Smith,Reverted edits by [[Special:Contributions/169.62.13.20|169.62.13.20]] ([[User talk:169.62.13.20|talk]]): nonconstructive edits ([[WP:HG|HG]]) (3.4.4)
2018-12-21T17:11:12+00:00,874806129,874645332,0,103.48.58.226,Adam Smith,/* Religious views */
2019-12-20T13:02:57+00:00,931677072,931676747,0,No Great Shaker,Adam Smith,best to use the link
2019-09-28T13:13:16+00:00,918396917,918381661,0,Mitch Ames,Adam Smith,"Fix cite warning: Italic or bold markup not allowed in: publisher, website, work"
2019-03-18T14:15:38+00:00,888338705,888338654,0,Ealdgyth,Adam Smith,/* References */ per [[MOS:ACCESS]]
2019-02-28T10:10:46+00:00,885489939,885264188,0,185.16.141.5,Adam Smith,
2019-04-24T07:37:16+00:00,893893974,887994834,0,Sandstein,Alan Keyes,Removing link(s): [[Wikipedia:Articles for deletion/America's Party (political party)]] closed as delete ([[WP:XFDC|XFDcloser]])
2018-11-05T03:56:46+00:00,867348458,867262653,0,Ser Amantio di Nicolao,Albert Jay Nock,/* External links */recategorize
2019-08-13T21:55:18+00:00,910708381,910708281,0,KingOpti101,American Independent Party,/* Presidential tickets */
2019-07-14T17:48:53+00:00,906255598,904862677,0,75.159.65.183,Alberta New Democratic Party,/* NDP */
2019-04-05T13:13:28+00:00,891068579,888930618,0,Suite1408,Albert Jay Nock,"Organizing categories, new category added."
2019-08-24T00:47:10+00:00,912215846,912215118,0,Spicy,Alan Keyes,Reverted 1 edit by [[Special:Contributions/2600:1012:B119:C851:28B0:5747:6339:75B3|2600:1012:B119:C851:28B0:5747:6339:75B3]] ([[User talk:2600:1012:B119:C851:28B0:5747:6339:75B3|talk]]) to last revision by Coffeeandcrumbs ([[WP:TW|TW]])
2019-05-08T02:56:37+00:00,896048347,896041895,0,162.157.78.155,Alberta New Democratic Party,/* Current Alberta New Democrat MLAs */
2019-03-20T15:06:27+00:00,888652940,888589827,0,207.148.182.98,Alberta New Democratic Party,
2019-10-28T21:14:24+00:00,923484975,923483954,0,Ajraddatz,Alberta New Democratic Party,Reverted edits by [[Special:Contribs/64.56.150.90|64.56.150.90]] ([[User talk:64.56.150.90|talk]]) to last version by 126.94.252.66
2018-10-23T21:24:05+00:00,865424796,865223044,0,Cvalin,American Independent Party,/* Wallace campaign and early history */ inserted missing word
2019-04-24T07:36:26+00:00,893893846,892973019,0,Sandstein,American Independent Party,Removing link(s): [[Wikipedia:Articles for deletion/America's Party (political party)]] closed as delete ([[WP:XFDC|XFDcloser]])
2019-01-13T06:50:41+00:00,878136222,877971521,0,Abelmoschus Esculentus,Albert Jay Nock,added [[Category:Anglican anarchists]] using [[WP:HC|HotCat]]
2019-01-28T04:16:12+00:00,880574805,874418358,0,BlueShirtz,American Independent Party,/* Wallace campaign and early history */
2019-01-01T07:05:30+00:00,876264947,876125432,0,Bellerophon5685,Anti-Administration party,/* Further reading */
2019-08-05T23:37:11+00:00,909520960,909058632,0,Ched,Associate Justice of the Supreme Court of the United States,"Importing Wikidata [[Wikipedia:Short description|short description]]: ""Member of the U.S. Supreme Court other than the Chief Justice"" ([[User:Galobtter/Shortdesc helper|Shortdesc helper]])"
2019-11-22T18:18:31+00:00,927469965,927466906,0,Magidin,Associate Justice of the Supreme Court of the United States,"Undid revision 927466906 by [[Special:Contributions/70.54.132.223|70.54.132.223]] ([[User talk:70.54.132.223|talk]]) Please discuss this in talk page and seek consensus. AGs are Article 2 officers working under a president, very different situation."
2019-02-26T02:03:20+00:00,885117025,883291110,0,Gorrrillla5,Awami League,/* Ideology */
2019-01-14T13:04:07+00:00,878373841,878364604,0,Vinegarymass911,Awami League,Undid revision 878364604 by [[Special:Contributions/Vif12vf|Vif12vf]] ([[User talk:Vif12vf|talk]]) Please discuss and get consensus
2019-04-18T18:54:27+00:00,893063800,893062054,0,Magidin,Associate Justice of the Supreme Court of the United States,"Undid revision 893062054 by [[Special:Contributions/61.31.162.34|61.31.162.34]] ([[User talk:61.31.162.34|talk]]) rv good faith edit; according to SCOTUS page the judicial oath was taken in March. Before making more changes, please visit https://www.supremecourt.gov/about/members_text.aspx"
2019-06-01T13:05:42+00:00,899799473,899721813,0,Janvlug,Animal Politics EU,Updated number of seats in EU parliament after 2019 elections
2018-10-12T15:10:18+00:00,863716657,858248004,0,JHunterJ,Barry Goldwater 1964 presidential campaign,update link
2019-05-13T22:25:08+00:00,896961057,896960769,0,79.13.251.157,Animal Politics EU,
2018-11-26T03:46:27+00:00,870642673,870568631,0,Fungus Guy,Beauce (electoral district),/* Members of Parliament */
2019-05-06T03:10:19+00:00,895721412,895698852,0,Earl Andrew,Beauce (electoral district),Reverted edits by [[Special:Contribs/70.51.74.103|70.51.74.103]] ([[User talk:70.51.74.103|talk]]) to last version by Fungus Guy
2019-04-02T23:15:12+00:00,890691639,889755039,0,192.0.160.122,Bloc Québécois,/* Return and departure of Duceppe */
2018-09-15T13:51:27+00:00,859664960,859575215,0,Earl Andrew,Beauce (electoral district),
2019-05-13T22:13:20+00:00,896959619,896866307,0,Chad The Goatman,Bloc Québécois,Undid revision 896866307 by [[Special:Contributions/Vif12vf|Vif12vf]] ([[User talk:Vif12vf|talk]])
2019-01-29T16:46:28+00:00,880810635,880360800,0,Galteglise,Bloc Québécois,"Inserting term ""sovereigntist"" alongside ""separatist"" as a descriptor of political philosophy"
2018-10-14T00:55:05+00:00,863930198,863929816,0,2001:569:7C07:2600:91FD:E2D1:B36E:4ADB,Bloc Québécois,
2019-11-21T02:13:32+00:00,927216566,927216240,0,Jpgordon,Bloc Québécois,Reverted edits by [[Special:Contribs/007 KingPhil|007 KingPhil]] ([[User talk:007 KingPhil|talk]]) to last version by Paisarepa
2018-12-16T23:36:21+00:00,874072977,874072006,0,MMMcMaster,Bloc Québécois,/* Party leaders */
2019-04-08T01:43:43+00:00,891452875,891449836,0,Bradleysoh52,Brett Kavanaugh,"/* Julie Swetnick */The word 'and' distinguishes Mark Judge and Brett Kavanaugh. So it should be 'Judge and Kavanaugh', not 'Judge Kavanaugh'."
2019-04-14T21:50:37+00:00,892488245,892166356,0,Nerd271,Brett Kavanaugh,/* U.S. Supreme Court (2018–present) */ Removed a red link.
2018-06-25T02:39:13+00:00,847399434,841217130,0,Hmains,Cable Communications Policy Act of 1984,standard quote handling in WP;standard Apostrophe/quotation marks in WP;add/change/refine category; MOS fixes using [[Project:AWB|AWB]]
2018-09-15T16:48:59+00:00,859686735,858718377,0,50.66.176.46,Canadian Alliance,
2019-01-21T17:51:04+00:00,879503903,879503795,0,CLCStudent,Canadian Alliance,Reverted edits by [[Special:Contribs/142.227.152.4|142.227.152.4]] ([[User talk:142.227.152.4|talk]]) to last version by 50.66.176.46
2019-04-20T14:24:14+00:00,893314721,893314373,0,Braganza,Centre-right coalition (Italy),/* 2008 general election */
2018-08-23T06:35:33+00:00,856150222,854488504,0,Wow,Chair of the Federal Reserve,/* List of Fed Chairs */
2019-01-07T19:08:02+00:00,877286781,875091238,0,Tavix,Chair of the Federal Reserve,"/* List of Fed Chairs */ removing unnecessary presidential photos, which declutters the list and directs one's attention to the *actual* subjects"
2018-10-24T15:20:19+00:00,865540990,865434192,0,MarginalCost,Chair of the Federal Reserve,"Undid revision 865434192 by [[Special:Contributions/144.126.40.25|144.126.40.25]] ([[User talk:144.126.40.25|talk]]) birth date information is not useless, and is included in many similar lists. For starters, it gives info on age during the post, and age at potentially formative economic events in the person's life, e.g. the Great Depression"
2019-02-27T14:19:15+00:00,885353415,885193813,0,Braganza,Centre-right coalition (Italy),/* Regional Councils */
2018-11-26T20:38:33+00:00,870756696,870756351,0,99.229.26.21,Chair of the Federal Reserve,/* Appointment process */
2019-06-18T03:15:50+00:00,902332878,901870991,0,89.154.84.93,Chega (political party),
2019-11-05T23:38:32+00:00,924791327,924714125,0,Edgarxfg,Chega (political party),
2019-07-05T09:27:59+00:00,904889529,904851663,0,Rodrigospascoal,Chega (political party),Check the portuguese wiki to see comparison
2019-11-09T13:51:26+00:00,925342077,925322758,0,Eyer,Chief Justice of the United States,"[[MOS:JOBTITLES]], modified by ""The"""
2019-09-17T17:02:15+00:00,916209860,916207699,0,Magidin,Chief Justice of the United States,Undid revision 916207699 by [[Special:Contributions/174.255.129.28|174.255.129.28]] ([[User talk:174.255.129.28|talk]]) rvv
2019-03-19T21:13:13+00:00,888548089,888548030,0,CLCStudent,Chief Justice of the United States,Reverted edits by [[Special:Contribs/108.4.143.162|108.4.143.162]] ([[User talk:108.4.143.162|talk]]) to last version by Kirbanzo
2019-10-21T23:27:53+00:00,922410634,922287066,0,HapHaxion,Christian Democratic Party (Bolivia),
2019-05-28T12:20:01+00:00,899186392,899186371,0,Braganza,Centre-right coalition (Italy),
2019-11-22T13:50:46+00:00,927432480,927423924,0,Neveselbert (mobile),Clement Attlee,/* top */
2019-07-25T11:38:34+00:00,907803243,907773681,0,Keith D,Clement Attlee,Undid revision 907773681 by [[Special:Contributions/96.54.186.128|96.54.186.128]] ([[User talk:96.54.186.128|talk]]) - Positions not numbered
2019-04-20T11:22:09+00:00,893296761,892922638,0,Vjr300,Communist Party – Alberta,
2018-05-19T21:43:44+00:00,842048770,842048651,0,Charles Essie,Communist Party of Nepal (United),This party is now defunct.
2019-10-17T04:41:01+00:00,921675252,921667878,0,Consta132,Conservative Party of Canada,
2018-12-27T13:25:28+00:00,875564084,875548987,0,Mélencron,Conservative Party of Canada,Reverted 2 edits by [[Special:Contributions/LeoC12|LeoC12]] ([[User talk:LeoC12|talk]]): Uncited change without changes to adjacent refs. ([[WP:TW|TW]])
2018-12-05T19:24:31+00:00,872191622,871611316,0,RA0808,Conservative Party of Canada,Election of [[Michael Barrett (Canadian politician)|Michael Barrett]] in Leeds-Grenville by-election
2019-11-17T08:22:34+00:00,926570924,926505944,0,Patsonic1,Conservative Party of Canada,/* Geography */
2019-02-04T23:21:41+00:00,881810436,881800879,0,Headhitter,Conservative Party of Canada,c/e lede
2018-10-18T06:42:39+00:00,864591433,862615203,0,Wow,Conservative Party of Canada,fix
2019-01-30T21:41:17+00:00,881009813,881009217,0,AlexWaelde,Democratic-Republican Party,Reverted edits by [[Special:Contributions/Pauld2005|Pauld2005]] ([[User talk:Pauld2005|talk]]) ([[WP:HG|HG]]) (3.4.6)
2019-06-01T19:32:12+00:00,899846461,899512932,0,Steel1943,Democratic-Republican Party,"Disambiguated: [[Thomas Cooper (U.S. politician)]] → [[Thomas Cooper (American politician, born 1759)]]"
2019-08-03T04:29:04+00:00,909109150,909098038,0,Dimadick,Democratic-Republican Party,Reverted unsourced additions.
2019-02-21T01:05:36+00:00,884342834,883328535,0,PerhapsXarb,Democratic-Republican Party,"Left-Right spectrum did not exist at the time and only applies to some Dem-Rep positions; for example, they did not believe in a strong central government, which would today be considered right-wing or conservative."
2019-03-15T17:01:54+00:00,887911424,887911398,0,KGirlTrucker81,Democratic-Republican Party,Reverted edits by [[Special:Contribs/72.0.149.114|72.0.149.114]] ([[User talk:72.0.149.114|talk]]) to last version by UnitedStatesian
2019-01-20T04:01:18+00:00,879268862,879268693,0,Materialscientist,Democratic-Republican Party,Reverted edits by [[Special:Contribs/71.191.90.81|71.191.90.81]] ([[User talk:71.191.90.81|talk]]) to last version by Materialscientist
2018-12-08T18:36:38+00:00,872712424,872618460,0,Njmhartman,Democratic-Republican Party,"I made a grammatical edit for subject/verb agreement. The original read: ""polices was signs"". I changed this to ""policies were signs""."
2019-05-12T09:40:51+00:00,896701704,896583892,0,Airbornemihir,Director of the Federal Bureau of Investigation,Disambiguated: [[Christopher Wray]] → [[Christopher A. Wray]]
2018-10-11T16:11:19+00:00,863567429,858547393,0,78.67.218.124,Director of the Federal Bureau of Investigation,United States Intelligence Community wikilink
2018-10-17T09:05:45+00:00,864452807,864141105,0,Braganza,Dominant-party system,/* Europe */
2019-11-30T03:25:58+00:00,928562984,928390921,0,2607:FEA8:1DE0:1E2D:D8B9:6817:EE57:8666,Dominant-party system,Added proper citations for the Liberal Party of Canada which were previously removed from intro.
2019-10-17T10:09:14+00:00,921700645,921700605,0,NEDOCHAN,Douglas Murray (author),/* Publications */ ndrc
2018-10-21T08:37:24+00:00,865038317,865035608,0,Isaidnoway,Douglas Murray (author),"I count at least 52 references in this article where Douglas Murray is the author, look at the section ""Media appearances and journalism"", specifically para that begins ""On 19 October 2013"", every ref is authored by Murray, same section para that begins ""From 2002–2003"" 11/12 refs authored by Murray"
2019-06-30T01:47:20+00:00,904108966,903578953,0,Erinthecute,Dominant-party system,
2019-05-25T20:21:08+00:00,898769621,896384104,0,Matt Campbell,Eldridge Cleaver,
2019-11-04T10:12:28+00:00,924519276,924312794,0,Pincrete,Douglas Murray (author),"Undid revision 924312794 good faith edit, but whether he is con or neo-con is discussed immediately after ... the book would not be a RS for either in itself"
2019-10-20T17:40:54+00:00,922207009,918981224,0,Rafaelloaa,Eldridge Cleaver,Fixed typo
2019-11-28T01:27:54+00:00,928284065,925635733,0,2605:6000:151F:FBD:F94E:C717:6ECB:38CC,Eldridge Cleaver,
2017-10-30T02:15:18+00:00,807778841,807778442,0,Srich32977,Electoral history of Barry Goldwater,spaced N dashes (SNDs)
2019-10-26T17:44:12+00:00,923147631,921700645,0,219.93.101.97,Douglas Murray (author),/* Publications */ Fixed grammar
2018-11-19T10:13:32+00:00,869556768,869556752,0,Marxistfounder,European Conservatives and Reformists,Undid revision 869556752 by [[Special:Contributions/Marxistfounder|Marxistfounder]] ([[User talk:Marxistfounder|talk]])
2019-01-04T15:50:14+00:00,876803789,876678690,0,ThecentreCZ,European Conservatives and Reformists Party,/* Former members */
2019-11-27T14:10:59+00:00,928204734,928180076,0,85.204.46.161,European Conservatives and Reformists Party,
2019-03-04T17:47:03+00:00,886173491,884627794,0,Cran32,European Conservatives and Reformists Party,/* Member parties */ Updated Sor Party representation
2019-02-09T21:59:11+00:00,882551452,880936424,0,Chrism,European Conservatives and Reformists Party,/* top */
2019-08-30T03:30:36+00:00,913134745,913026008,0,Goodone121,European Conservatives and Reformists Party,Undid revision 913026008 by [[Special:Contributions/102.159.155.93|102.159.155.93]] ([[User talk:102.159.155.93|talk]])
2019-05-30T03:43:53+00:00,899448768,899430787,0,Chad The Goatman,European Parliament,
2018-10-16T19:08:29+00:00,864367372,864367354,0,ClueBot NG,European Parliament,"Reverting possible vandalism by [[Special:Contribs/146.90.87.84|146.90.87.84]] to version by Smasongarrison. [[WP:CBFP|Report False Positive?]] Thanks, [[WP:CBNG|ClueBot NG]]. (3511664) (Bot)"
2018-12-08T22:47:20+00:00,872744400,872726311,0,IdreamofJeanie,European Parliament,Reverted edits by [[Special:Contribs/Konulagha|Konulagha]] ([[User talk:Konulagha|talk]]) to last version by Nasty swimmer
2019-09-03T22:43:12+00:00,913901073,913900989,0,201.244.241.75,European Parliament,
2019-07-31T10:11:07+00:00,908689764,908573306,0,84.52.237.122,European Parliament,"Updated intro to correctly show Renew Europe, and not ALDE"
2020-01-03T20:57:39+00:00,933937838,931716249,0,JamesVilla44,European Parliament,
2018-11-11T07:35:03+00:00,868291964,856455819,0,TallNapoleon,Fatherland Front (Austria),/* Anschluss */
2019-01-23T09:55:08+00:00,879779792,879564492,0,Sprightliest,Fidesz,Undid revision 879564492 by [[Special:Contributions/KIENGIR|KIENGIR]] ([[User talk:KIENGIR|talk]])
2018-12-28T01:45:09+00:00,875644436,874817392,0,Bellerophon5685,Fidesz,/* External links */
2018-10-01T22:19:32+00:00,862061222,860044594,0,Klofáč,Fidesz,
2019-09-11T17:48:40+00:00,915178337,915176716,0,The Account 1,Fidesz,The party has been skeptical of liberal economic policies
2019-06-08T15:03:04+00:00,900930633,900260498,0,151.76.146.23,Firing Line (TV program),Fixed typo.
2019-05-27T08:07:49+00:00,899004084,899003683,0,NapoleonX,Firing Line (TV program),
2019-11-21T20:10:29+00:00,927329668,927329609,0,WorldwideBallcaps,Firing Line (TV program),
2019-02-20T04:29:35+00:00,884202325,884156965,0,AnonMoos,Free Soil Party,/* Legacy */
2019-02-25T19:33:58+00:00,885068417,884888564,0,CommonsDelinker,Greek Solution,"Removing [[:c:File:Elliniki-lisi.png|Elliniki-lisi.png]], it has been deleted from Commons by [[:c:User:Ronhjones|Ronhjones]] because: Previously deleted file [[:c::File:Elliniki-lisi-logo.png|]]."
2019-02-12T03:36:51+00:00,882915495,882581388,0,IznoRepeat,History of conservatism in the United States,"clean explicit et al, gen fixes"
2019-11-04T19:47:25+00:00,924590405,924588549,0,LynxTufts,Greek Solution,Reverted 1 edit by [[Special:Contributions/86.26.133.116|86.26.133.116]] ([[User talk:86.26.133.116|talk]]) ([[WP:TW|TW]])
2018-10-14T03:14:14+00:00,863946470,858217534,0,Smasongarrison,History of conservatism in the United States,"copy edit with [[Wikipedia:AutoWikiBrowser/General_fixes|General fixes]]; [[Template:Citation_Style_documentation#url|url trimming]] of identifying info per[[WP:LINKSTOAVOID]], replaced: president T → President T"
2019-06-20T00:40:46+00:00,902608238,902608205,0,Editor2020,History of conservatism in the United States,"new key for [[Category:Conservatism in the United States]]: ""* "" using [[WP:HC|HotCat]]"
2018-08-20T16:44:49+00:00,855757447,855757243,0,2001:470:1F1D:BD2:8D80:64FE:856B:B0C8,Janusz Korwin-Mikke,/* Biography */
2019-10-18T20:02:53+00:00,921926079,921911497,0,178.43.244.206,Janusz Korwin-Mikke,
2019-09-14T20:13:14+00:00,915696769,905766917,0,Super Miron,Janusz Korwin-Mikke,not anymore
2019-04-29T00:40:15+00:00,894628133,894282035,0,DumbBOT,Janusz Korwin-Mikke,removing a protection template from a non-protected page ([[User:DumbBOT/Protection|info]])
2019-11-07T23:04:59+00:00,925114799,925114509,0,155.143.34.114,Janusz Korwin-Mikke,These are the same sources that are used to describe the party he founded.
2019-08-28T07:16:43+00:00,912845472,912420404,0,Bleu acide,Japanese Communist Party,/* Leaders */
2018-09-26T15:36:00+00:00,861316650,860614251,0,Mar(c),Japanese Communist Party,"Disambiguate [[Democratic Party (Japan)]] to [[Democratic Party (Japan, 2016)]] using [[:en:Wikipedia:Tools/Navigation_popups|popups]]"
2019-08-03T01:09:43+00:00,909091742,909091184,0,Dogru144,Japanese Communist Party,/* History */ independent direction from the USSR
2018-11-26T18:56:47+00:00,870739350,870737580,0,Dw122339,Japanese Communist Party,
2019-07-24T02:22:52+00:00,907608085,907567196,0,Nikkimaria,Joe Clark,rvv
2018-10-15T02:37:46+00:00,864097662,851565483,0,Ser Amantio di Nicolao,John Hospers,/* External links */recategorize
2019-07-26T13:13:26+00:00,907961158,907881192,0,141.117.117.12,Julie Payette,/* Honorary degrees */
2019-11-21T18:01:35+00:00,927313790,927186166,0,LiftFall,Julie Payette,
2019-10-26T18:08:23+00:00,923150638,923060354,0,198.200.64.130,Julie Payette,/* Education and early career */
2018-12-08T04:49:37+00:00,872626067,872625848,0,Kingdom of Baustralia,Julie Payette,/* Honours */
2019-09-07T21:39:24+00:00,914511975,914511739,0,62.232.37.98,Katie Hill,/* Personal life */
2019-08-27T00:33:46+00:00,912650247,909014826,0,Kingofthedead,Katie Hill,/* Personal life */
2018-07-22T16:06:35+00:00,851480777,851475964,0,Corkythehornetfan,L. Patrick Gray,date formats per [[MOS:DATEFORMAT]] by [[WP:MOSNUMscript|script]]
2019-02-27T01:31:25+00:00,885276492,884960812,0,156.198.138.188,L. Patrick Gray,
2018-12-05T16:21:37+00:00,872169953,872164641,0,Ralbegen,Labour Party (UK),"Undid revision 872164641 by [[Special:Contributions/Combinedauthorities|Combinedauthorities]] ([[User talk:Combinedauthorities|talk]]) As the note says, there should be Talk page consensus before any change here"
2018-10-18T15:53:30+00:00,864649860,864232947,0,Jhertel,Labour Party (UK),half-a-million → half a million
2018-09-25T15:56:18+00:00,861169963,860821862,0,Orenburg1,Labour Party (UK),sp
2019-11-11T17:36:26+00:00,925683586,925652364,0,David J Johnson,Labour Party (UK),Undid revision 925652364 by [[Special:Contributions/Gorrrillla5|Gorrrillla5]] ([[User talk:Gorrrillla5|talk]]) Correct previous.
2019-08-17T10:42:46+00:00,911217785,911216425,0,VelvetCommuter,Labour Party (UK),/* Membership and registered supporters */
2019-07-23T13:33:13+00:00,907520889,906909413,0,Jontel,Labour Party (UK),"/* Opposition: Corbyn, 2015–present */ Update and more WP:DUE"
2019-10-01T12:36:31+00:00,919024513,919023454,0,Renamed user hd763bgh3f,Labour Party (UK),
2019-07-27T13:49:55+00:00,908106871,908085348,0,Aocloyalist,Labour Party (UK),/* Ideology */
2019-02-12T13:20:32+00:00,882966865,882666288,0,TrottieTrue,Labour Party (UK),alphabetised
2019-12-03T19:15:37+00:00,929113678,928970004,0,VelvetCommuter,Labour Party (UK),"/* Opposition: Corbyn, 2015–present */ The section on antisemitism had few sources. Now major parts of the issue are included and better sourced."
2019-09-07T12:14:01+00:00,914425639,911215724,0,183.179.74.249,Landtag of Brandenburg,/* See also */
2018-07-06T16:44:34+00:00,849114849,848748310,0,PootisHeavy,Landtag of Brandenburg,/* Presidents of the Landtag of Brandenburg */
2018-05-17T14:52:58+00:00,841707676,841487744,0,LuigiPortaro29,Landtag of Saxony,Undid revision 841487744 by [[Special:Contributions/123.124.233.241|123.124.233.241]] ([[User talk:123.124.233.241|talk]])
2019-08-29T10:29:09+00:00,913019324,903903173,0,2607:FEA8:33A0:8E1:D894:9CBF:7959:619C,Landtag of Saxony,/* Kingdom of Saxony */
2018-12-29T19:19:21+00:00,875896744,875896035,0,Anonymous from the 21st century,Landtag of Saxony,
2018-11-04T16:18:04+00:00,867248912,865526984,0,89.216.20.36,League of Communists of Yugoslavia,
2019-07-19T03:51:32+00:00,906909413,906252961,0,LloydStarkiller,Labour Party (UK),
2019-09-17T18:11:04+00:00,916219601,915925442,0,93.86.251.35,League of Communists of Yugoslavia,
2018-09-28T13:19:33+00:00,861577438,861576070,0,Peacemaker67,League of Communists of Yugoslavia,Reverted [[WP:AGF|good faith]] edits by [[Special:Contributions/112.141.82.127|112.141.82.127]] ([[User talk:112.141.82.127|talk]]): Hardly paramilitary. ([[WP:TW|TW]])
2018-12-28T21:27:04+00:00,875765293,867248912,0,Sorabino,League of Communists of Yugoslavia,
2018-10-01T19:36:18+00:00,862039470,860566942,0,Sandstein,Left Bloc (Portugal),Removing link(s): [[Wikipedia:Articles for deletion/Multi-tendency]] closed as delete ([[WP:XFDC|XFDcloser]])
2019-01-27T01:08:44+00:00,880364378,876978028,0,DuckeggAlex,Liberal Party (UK),/* Decline */ of not for
2019-10-09T01:37:51+00:00,920325553,918504041,0,HangingCurve,Liberal Party (UK),/* Alliance and Liberal Democrats */ reword
2019-01-05T19:14:50+00:00,876978028,875529903,0,Ham II,Liberal Party (UK),fixed [[MOS:DASH|dashes]] using a [[User:GregU/dashes.js|script]]
2019-09-02T11:14:08+00:00,913652845,913651814,0,Dan100,Liberal Party (UK),Radicals article makes no mention of French or American revolutions
2018-09-27T00:23:34+00:00,861378357,860326226,0,Wow,Liberal Party (UK),
2019-10-21T13:06:37+00:00,922329267,921946012,0,삭은사과,Liberal Party (UK),
2019-09-06T18:43:12+00:00,914336553,913043276,0,Malkunnleiki,Liberal Republican Party (United States),"added ""they"" to a sentence without a subject"
2019-07-18T11:38:26+00:00,906809384,906356774,0,2001:8003:C033:4E00:90CE:6695:D8A1:151A,Libertarian Party (Australia),/* Policies and views */ motocross
2019-01-12T22:42:05+00:00,878085888,878026381,0,The Drover's Wife,Libertarian Party (Australia),Reverted 2 edits by [[Special:Contributions/MroWikipedian|MroWikipedian]] ([[User talk:MroWikipedian|talk]]). ([[WP:TW|TW]])
2019-05-04T15:56:44+00:00,895486651,893757716,0,ITBF,Libertarian Party (Australia),/* External links */
2019-12-04T07:12:52+00:00,929194957,928012256,0,112.206.77.140,Libertarian Party (Australia),/* Policies and views */
2019-05-16T09:20:59+00:00,897328143,897305276,0,Goodone121,List of American conservatives,Undid revision 897305276 by [[Special:Contributions/61.68.24.98|61.68.24.98]] ([[User talk:61.68.24.98|talk]])
2019-06-04T23:08:24+00:00,900330876,900329760,0,GHcool,List of American conservatives,Undid revision 900329760 by [[Special:Contributions/DeaconJake007|DeaconJake007]] ([[User talk:DeaconJake007|talk]])
2019-08-18T16:23:31+00:00,911399987,903387127,0,Steven Crossin,List of United States senators from Arizona,Steven Crossin moved page [[List of United States Senators from Arizona]] to [[List of United States senators from Arizona]]: [[Wikipedia:Requested moves|requested move]]; consensus at [[Talk:List of current United States senators]]
2019-03-23T21:18:38+00:00,889155226,889020302,0,Rodw,List of American conservatives,Disambiguating links to [[Charles Kirk]] (link changed to [[Turning Point USA#Founder_Charlie_Kirk]]; link changed to [[Turning Point USA#Founder_Charlie_Kirk]]) using [[User:Qwertyytrewqqwerty/DisamAssist|DisamAssist]].
2018-10-16T06:12:39+00:00,864272057,860058934,0,Calibrador,List of United States senators from Arizona,
2018-11-27T16:49:54+00:00,870889676,870881723,0,AmYisroelChai,List of governors of South Carolina,/* Governors under the Constitution of 1895 */
2019-04-05T22:49:44+00:00,891138592,890424356,0,Wow,List of unsuccessful major party candidates for President of the United States,/* List of unsuccessful major party candidates */ recrop; requesting previous image of mine for deletion
2019-05-24T14:53:01+00:00,898582217,898582189,0,Agent00x,London Bridge,Reverted edits by [[Special:Contributions/82.22.68.10|82.22.68.10]] ([[User talk:82.22.68.10|talk]]): nonconstructive edits ([[WP:HG|HG]]) (3.4.8)
2019-01-26T14:45:33+00:00,880280393,880278736,0,Finlay McWalter,London Bridge,Reverted edits by [[Special:Contribs/2601:901:4400:83AF:F9F6:80D:22F8:2C38|2601:901:4400:83AF:F9F6:80D:22F8:2C38]] ([[User talk:2601:901:4400:83AF:F9F6:80D:22F8:2C38|talk]]) to last version by Alansplodge
2018-12-22T01:16:23+00:00,874857175,874669683,0,Andy Dingley,London Bridge,removed [[Category:Former toll bridges]]; added [[Category:Former toll bridges in the United Kingdom]] using [[WP:HC|HotCat]]
2019-04-27T16:08:02+00:00,894391015,894390980,0,Samf4u,London Bridge,Reverted edits by [[Special:Contributions/Peter_Matt_David|Peter_Matt_David]] ([[User talk:Peter_Matt_David|talk]]): disruptive edits ([[WP:HG|HG]]) (3.3.5)
2019-03-07T14:27:58+00:00,886632419,886615575,0,86.129.0.176,London Bridge,/* Modern London Bridge {{anchor|New London Bridge|1973}} */
2019-10-16T15:14:52+00:00,921577001,921576757,0,Peter K Burian,London Bridge,It was never that wide! 15 feet and then 20 feet wide; see discussion later in this section
2019-10-26T09:51:51+00:00,923095512,921890206,0,95.239.2.134,London Bridge,
2019-07-08T18:28:49+00:00,905374174,905216836,0,GreenC bot,London Bridge,Rescued 1 archive link. [[User:GreenC/WaybackMedic_2.5|Wayback Medic 2.5]]
2018-12-29T09:18:45+00:00,875835560,849965889,0,82.39.181.74,London Conservatives,/* Current representatives */
2018-07-12T16:55:56+00:00,849965889,847414836,0,Gorrrillla5,London Conservatives,
2019-01-17T20:58:49+00:00,878929145,878927051,0,Alansplodge,London Bridge,"/* {{anchor|Old London Bridge|1209}}""Old"" London Bridge (1209–1831) */ Corrected King's College London wikilink"
2019-05-10T13:28:15+00:00,896435287,875835560,0,195.224.43.196,London Conservatives,Updated the correct Regional Chairman and Deputy chairmen. Information is correct as of today as per the following page: https://www.londonconservatives.co.uk/londonregionalteam
2018-11-09T22:01:45+00:00,868084076,867357670,0,2.8.70.244,Ludwig von Mises,
2019-07-11T18:06:55+00:00,905827073,903875003,0,2601:547:A00:ADC4:B19D:C694:8E18:54F0,Ludwig von Mises,
2019-07-31T11:10:23+00:00,908695939,905827073,0,Mypetitebijou,Ludwig von Mises,
2019-04-25T07:14:22+00:00,894041938,894014569,0,Materialscientist,Maxime Bernier,"restore - similar photos, but 2017 is very much preferred to 2007"
2019-09-24T23:41:40+00:00,917683380,917213664,0,Tony1,Maxime Bernier,"[[User:Ohconfucius/script|Script]]-assisted fixes: per [[MOS:NUM]], [[MOS:CAPS]], [[MOS:LINK]]"
2019-04-07T15:38:55+00:00,891378446,890911394,0,216.154.27.4,Maxime Bernier,
2018-09-30T23:44:05+00:00,861917167,861916566,0,Melcous,Maxime Bernier,Reverted 1 edit by [[Special:Contributions/66.36.128.109|66.36.128.109]] ([[User talk:66.36.128.109|talk]]): Not supported by article. ([[WP:TW|TW]])
2019-11-17T20:23:37+00:00,926648356,926648316,0,Lilburger20,Maxime Bernier,
2019-04-23T13:09:15+00:00,893767455,892937916,0,GreenC bot,Maxime Bernier,Reformat 4 archive links. [[User:GreenC/WaybackMedic_2.5|Wayback Medic 2.5]]
2019-07-19T19:58:37+00:00,907004969,907004870,0,OliviaWolfie,Maxime Bernier,rv/v
2019-11-24T08:35:37+00:00,927712899,927707007,0,Melcous,Maxime Bernier,Improper formatting in quotes in references; unnecessary to have so many references for one statement
2018-12-27T21:23:48+00:00,875617722,875610564,0,206.47.139.130,Maxime Bernier,
2019-03-11T22:06:53+00:00,887318566,887318175,0,Hiveho,Maxime Bernier,grammer
2019-03-08T18:30:06+00:00,886815560,886810897,0,The Interior,Maxime Bernier,Undid revision 886810897 by [[Special:Contributions/64.228.55.161|64.228.55.161]] ([[User talk:64.228.55.161|talk]]) non-neutral phrasing
2018-09-29T04:06:17+00:00,861671463,861502948,0,Omnipaedista,Maxime Bernier,
2018-10-31T13:20:32+00:00,866618521,866615815,0,Skishelpful,MediaWiki talk:Spam-whitelist,/* change.org */
2019-06-09T02:24:22+00:00,901006470,901006212,0,When the JSK is sus!,MediaWiki talk:Spam-whitelist,/* satcom.guru */Bad separation
2019-09-03T13:24:39+00:00,913828148,913827803,0,PeterTheFourth,MediaWiki talk:Spam-whitelist,Move this to a more appropriate page
2019-02-09T19:34:29+00:00,882533739,882401103,0,Energynet,MediaWiki talk:Spam-whitelist,/* Proposed additions to Whitelist (web pages to unblock) */  academicRoom article whitelist request.
2019-04-20T08:30:09+00:00,893281731,893154909,0,LTPHarry,MediaWiki talk:Spam-whitelist,/* gofundme link to cite current status of active campaign */
2019-01-06T16:23:50+00:00,877105207,877104249,0,Metropolitan90,MediaWiki talk:Spam-whitelist,/* ezinearticles.com */
2018-12-30T18:58:10+00:00,876034822,875911088,0,Metropolitan90,MediaWiki talk:Spam-whitelist,/* Proposed additions to Whitelist (web pages to unblock) */
2018-12-13T14:56:36+00:00,873507422,873505983,0,North8000,Mises Institute,"undo deletion.  A primary source accusation is already in, and covering their response is appropriate."
2018-09-17T20:01:25+00:00,860018254,858580378,0,GreenC bot,Movimiento al Socialismo,Reformat 1 archive link. [[User:GreenC/WaybackMedic_2.1|Wayback Medic 2.1]]
2019-03-09T22:58:29+00:00,886997830,886699526,0,Charles Essie,Movimiento al Socialismo,/* External links */ added category
2019-07-03T22:05:43+00:00,904696613,904604746,0,Neils51,Movimiento al Socialismo,/* Years of struggle */grammar/usage - 'votes' is a countable noun
2019-03-16T14:15:28+00:00,888037406,888004267,0,Hades7,Mises Institute,
2019-01-19T01:16:16+00:00,879103208,879103022,0,XLinkBot,Movimiento al Socialismo,BOT--Reverting link addition(s) by [[:en:Special:Contributions/200.105.153.206|200.105.153.206]] to revision 874549444 (www.mas-ipsp.tk/ [\.tk\b])
2019-08-16T03:35:56+00:00,911031611,904696613,0,45.226.35.2,Movimiento al Socialismo,Orthography correction
2019-09-14T17:10:53+00:00,915673154,914655896,0,Rsquire3,Murray Rothbard,/* Education */Two punctuation errors in one sentence.
2018-10-10T05:54:25+00:00,863345196,861598019,0,65.78.148.121,National Democratic Party (United States),
2019-01-26T15:35:18+00:00,880285709,880132270,0,Diannaa,National Democratic Party (United States),"this material appears to be in the public domain, but nevertheless it's not appropriate to paste it here"
2018-10-19T23:13:48+00:00,864856634,854128701,0,FloridaArmy,National Party of Honduras,/* Controversies */
2019-06-30T11:35:59+00:00,904165308,903921367,0,Nyttend,National Party of Honduras,Is that really one of the top bits in the party's 117-year history?
2018-08-09T04:26:56+00:00,854128701,853953395,0,ZYjacklin,National Party of Honduras,Added some electoral history
2019-05-18T16:43:04+00:00,897678709,890381070,0,Agtx,National Review,/* Presidential primary endorsements */My recollection is that John Kerry ran for President in 2004...
2019-10-16T19:23:03+00:00,921611144,921579873,0,38.142.141.218,National Review,Undid revision 921579873 by [[Special:Contributions/Snooganssnoogans|Snooganssnoogans]] ([[User talk:Snooganssnoogans|talk]])
2015-10-13T00:13:43+00:00,685462922,0,0,Joren,National Socialist Japanese Workers' Party,This article does not exist; redirecting to [[Uyoku dantai#国家社会主義日本労働者党]]
2019-03-23T11:42:51+00:00,889090769,685462922,0,Michael Bednarek,National Socialist Japanese Workers' Party,better target.
2019-08-04T03:47:35+00:00,909243492,909231996,0,HaeB,Neoconservatism,Reverted to revision 906436938 by [[Special:Contributions/Suite1408|Suite1408]] ([[User talk:Suite1408|talk]]): Please [[WP:V|cite sources]] and make sure they satisfy [[WP:RS]] ([[WP:TW|TW]])
2019-05-02T18:46:04+00:00,895211904,893770344,0,Rodw,Neoconservatism,Disambiguating links to [[Vox]] (link changed to [[Vox (website)]]) using [[User:Qwertyytrewqqwerty/DisamAssist|DisamAssist]].
2019-07-22T17:49:19+00:00,907407559,906439076,0,174.4.88.50,Neoconservatism,Redundancy
2019-02-17T23:07:11+00:00,883836961,883666088,0,86.161.12.33,Neoconservatism,
2019-09-23T17:03:49+00:00,917395422,917248157,0,69.145.52.232,Neoconservatism,"/* Institutions */Institution was removed from list b/c:a)use of the label ""neoconservative"" is inaccurate and is a misuse of the term as a pejorative, see https://arcdigital.media/you-are-all-misusing-neoconservative-158cb9ecc3e6 b)previous source ""Power Trip: U.S. Unilateralism and Global Strategy After September 11"" names different but similarly named organization. Unclear if is even the same organis. Also, claims made in source I.E.""Christian right"" used to justify label are unsubstantiated."
2019-01-09T23:11:38+00:00,877639309,877637958,0,Tobby72,Neoconservatism,Undid revision 877637958 by [[Special:Contributions/2A02:587:3A04:9B00:456A:6A71:D400:438A|2A02:587:3A04:9B00:456A:6A71:D400:438A]] ([[User talk:2A02:587:3A04:9B00:456A:6A71:D400:438A|talk]]) rvv
2019-03-01T22:28:48+00:00,885726047,884330238,0,2A01:388:243:150:0:0:1:25C,Neoconservatism,"/* 2010s */ haley and abrams are neocons, bolton is more of a 'paleocon hawk'"
2019-08-10T09:48:57+00:00,910192841,910192413,0,180.129.20.108,Neoconservatism,/* 2008 presidential election and aftermath */
2018-10-24T04:33:14+00:00,865469842,865469674,0,38.66.197.124,Neoconservatism,/* Politicians */
2018-12-06T17:31:54+00:00,872325324,872325078,0,ModerateMikayla555,Neoconservatism,/* Leo Strauss and his students */
2018-11-16T09:50:33+00:00,869089153,869019815,0,Fuzheado,Neoconservatism,Reverted 2 edits by [[Special:Contributions/2001:5B0:2512:AE8:C144:C667:AA50:C497|2001:5B0:2512:AE8:C144:C667:AA50:C497]] ([[User talk:2001:5B0:2512:AE8:C144:C667:AA50:C497|talk]]) to last revision by Froid. ([[WP:TW|TW]])
2019-05-14T22:39:14+00:00,897122323,897122230,0,General Ization,Neoconservatism,Reverted edits by [[Special:Contribs/General Ization|General Ization]] ([[User talk:General Ization|talk]]) to last version by Luisa Valencia
2018-10-30T00:35:24+00:00,866382333,866381700,0,2A0A:A541:E7D9:0:1108:777B:C247:724A,Nepal Communist Party,/* Presence in various provinces */  province renamed
2019-10-08T01:05:12+00:00,920162171,919409812,0,Sharper,New Democratic Party,/* top */ MOS:ORDER
2019-11-20T14:53:04+00:00,927129608,927115737,0,130.15.35.155,Nepal Communist Party,
2018-12-31T22:50:03+00:00,876221067,875220065,0,Risto hot sir,Neoconservatism,
2019-01-26T08:55:48+00:00,880248664,880243769,0,2600:1700:8B60:CA00:D125:E9F9:AF86:D6FF,Neoconservatism,
2018-10-01T19:27:02+00:00,862038359,860478331,0,Toronto2005!,New Democratic Party,
2019-05-06T14:43:25+00:00,895790380,895121235,0,Scoutguy5427,New Democratic Party,/* Electoral achievements */
2019-12-22T10:46:54+00:00,931944634,930695983,0,47.54.154.190,New Democratic Party,/* 2004 federal election */
2019-09-12T08:28:57+00:00,915281500,915092350,0,SymeonTheMacedonian,New Democratic Party,
2018-12-25T08:00:15+00:00,875288685,874679664,0,2001:1970:4B61:7C00:FD52:985A:22E:DDF9,New Democratic Party,Keep it simple
2018-10-12T14:28:44+00:00,863711825,863532197,0,PhidlerCrab,New Democratic Party,Undid revision 863532197 by [[Special:Contributions/2607:FEA8:1DDF:F5DF:E50C:45EC:17E0:1A96|2607:FEA8:1DDF:F5DF:E50C:45EC:17E0:1A96]] ([[User talk:2607:FEA8:1DDF:F5DF:E50C:45EC:17E0:1A96|talk]])
2019-06-30T20:10:53+00:00,904227086,903758854,0,Earl Andrew,New Democratic Party,"/* Federal leaders */ full name, as per the rest of the leaders"
2019-07-15T18:07:12+00:00,906416713,906210349,0,82.6.162.49,Opinion polling for the 2019 United Kingdom general election,/* 2019 */
2019-10-19T23:04:28+00:00,922096174,922095356,0,Paul Erik,New Democratic Party,Reverted edits by [[Special:Contribs/154.5.229.224|154.5.229.224]] ([[User talk:154.5.229.224|talk]]) to last version by Paul Erik
2019-06-26T11:56:08+00:00,903561092,903417051,0,Mélencron,Opinion polling for the 2019 United Kingdom general election,"/* 2019 */ + YouGov, 24–25 Jun"
2019-04-17T22:06:04+00:00,892943149,892943057,0,142.112.22.149,People's Party of Canada,It is CTV powerplay not question period
2019-10-17T20:19:05+00:00,921774568,921716788,0,CremationLily,People's Party of Canada,Added citation
2018-12-21T02:54:14+00:00,874716731,874487395,0,Hiveho,People's Party of Canada,
2019-12-06T00:58:20+00:00,929467248,929467039,0,KeyKing666,Opinion polling for the 2019 United Kingdom general election,/* Scotland */
2019-07-29T12:32:21+00:00,908392266,908391149,0,Ahunt,People's Party of Canada,Filled in 3 bare reference(s) with reFill 2
2019-06-22T15:08:57+00:00,902956597,902955451,0,Heinvan5,People's Party of Canada,
2019-01-01T12:52:25+00:00,876292299,876251160,0,Ahunt,People's Party of Canada,comma fault
2019-07-11T23:58:02+00:00,905865980,905863639,0,KNHaw,People's Party of Canada,Reverted 1 edit by [[Special:Contributions/87.239.255.102|87.239.255.102]] ([[User talk:87.239.255.102|talk]]) to last revision by Bradv ([[WP:TW|TW]])
2019-07-26T18:53:10+00:00,908003398,907868982,0,24.212.41.92,People's Party of Canada,
2019-02-05T00:07:50+00:00,881815685,881815568,0,86.29.74.26,Opinion polling for the 2019 United Kingdom general election,/* 2019 */
2019-02-17T15:02:46+00:00,883772297,883747565,0,Hiveho,People's Party of Canada,Platform isn't finished.
2018-11-02T23:38:25+00:00,867000732,866999805,0,Beg1nLast,People's Party of Canada,
2019-04-29T14:20:13+00:00,894705082,582088636,0,UnitedStatesian,Portal:Business/Did you know/December 2006,UnitedStatesian moved page [[Portal:Business and economics/Did you know/December 2006]] to [[Portal:Business/Did you know/December 2006]] without leaving a redirect: move to simplified title
2019-12-12T19:18:18+00:00,930475948,928245200,0,72.142.99.178,Progressive Conservative Party of Canada,
2019-01-06T23:36:02+00:00,877159339,877073975,0,Kingjeff,Progressive Conservative Party of Canada,
2019-09-30T14:50:55+00:00,918840452,908323190,0,Ismail,"Progressive Party (United States, 1948–1955)","Removed bit on ""most"" historians agreeing Wallace was not a communist, see my comment on talk page in Dec 2018"
2019-02-26T09:33:53+00:00,885159731,885159678,0,94.65.216.254,Praxeology,
2019-04-11T20:14:09+00:00,892042914,877964725,0,Puisque,Radical Party of Chile,"""--party of Chile was a Chilean party""? If the ""of "" isn't part of the official name, then it's useless to repeat it"
2018-10-11T18:05:14+00:00,863582779,863582610,0,Ifnord,Rastriya Janata Party Nepal,Reverted [[WP:AGF|good faith]] edits by [[Special:Contributions/202.51.69.91|202.51.69.91]] ([[User talk:202.51.69.91|talk]]): Spelling errors introduced. ([[WP:TW|TW]])
2019-04-20T04:25:28+00:00,893260741,893260622,0,Raju Babu,Rastriya Janata Party Nepal,/* Elections */
2019-03-22T19:19:21+00:00,888997902,878320877,0,174.94.18.156,Reform Party of Canada,
2018-09-15T12:39:18+00:00,859657196,856855484,0,77.144.123.179,Reform Party of Canada,/* International trade policies */ Fixed typo
2019-01-14T04:30:45+00:00,878320877,871119906,0,Yue,Reform Party of Canada,Normal list.
2018-11-29T01:49:39+00:00,871119906,871119213,0,2607:FEA8:EA0:94A:F870:95F2:A157:AB14,Reform Party of Canada,/* Overview */
2019-04-02T01:23:54+00:00,890553308,880373742,0,50.99.37.62,Saskatchewan New Democratic Party,
2019-07-25T12:35:28+00:00,907809337,906391002,0,Narky Blert,Saskatchewan New Democratic Party,Link to DAB page repaired
2019-08-27T04:13:52+00:00,912674623,912527103,0,98.124.36.140,Saskatchewan New Democratic Party,
2019-07-02T15:46:24+00:00,904498897,903839122,0,Tholden28,Scott Brison,
2019-07-09T15:53:36+00:00,905510765,904498897,0,Alaney2k,Scott Brison,update wlink
2018-10-06T10:23:01+00:00,862737691,862589307,0,Vanjagenije,Serbian Progressive Party,Reverted edits by [[Special:Contribs/178.148.1.15|178.148.1.15]] ([[User talk:178.148.1.15|talk]]) to last version by Vanjagenije
2018-11-29T01:11:18+00:00,871116330,869255993,0,107.184.61.98,Serbian Progressive Party,
2018-10-31T19:43:19+00:00,866668815,866602582,0,Ronhjones,Serbian Progressive Party,Reverted 1 edit by [[Special:Contributions/178.148.1.15|178.148.1.15]] ([[User talk:178.148.1.15|talk]]) to last revision by CJCurrie. ([[WP:TW|TW]])
2019-03-11T15:04:52+00:00,887259960,886478435,0,94.189.144.161,Serbian Progressive Party,Do not write foolish things
2018-06-01T17:39:46+00:00,843967220,843876965,0,2003:D4:BBD2:1000:C13E:AB4D:6521:CD46,Social Democratic Movement,rv 181.114.108.123
2019-06-01T21:19:27+00:00,899863163,899824983,0,62.107.79.200,Social Democratic Party of Austria,/* European Parliament */
2019-05-29T15:32:15+00:00,899366590,899077821,0,93.139.155.213,Social Democratic Party of Austria,/* National Council */
2019-11-29T23:58:16+00:00,928542774,928542650,0,BegbertBiggs,Social Democratic Party of Austria,name fix/ill
2019-04-01T20:03:03+00:00,890513351,817937012,0,Aréat,Solidarity Civic Unity,logo color on spanish page
2019-07-26T15:04:46+00:00,907975668,907974249,0,62.195.197.186,States General of the Netherlands,
2018-10-27T14:48:47+00:00,865990038,865989829,0,Thayts,States General of the Netherlands,
2018-11-18T01:31:26+00:00,869348780,869347231,0,Hmains,Strom Thurmond,sic
2019-12-19T05:00:25+00:00,931489085,931313985,0,Will120,Strom Thurmond,
2019-03-21T02:25:23+00:00,888739393,887428853,0,Mm378,Strom Thurmond,"/* Early career */ changed ""that"" to ""who"""
2019-03-12T16:33:52+00:00,887428853,887025725,0,Orenburg1,Strom Thurmond,sp
2019-11-16T01:40:14+00:00,926390744,926014295,0,8.9.94.16,Strom Thurmond,ce
2019-06-17T07:15:46+00:00,902195103,902150427,0,Mad Dog Fargo,Strom Thurmond,He switched in 1964
2018-09-17T12:08:28+00:00,859957352,857783279,0,Godwin1996,Tea Party Caucus,
2018-11-18T08:14:10+00:00,869388605,869388105,0,456wert,Tea Party Caucus,
2019-11-28T03:58:34+00:00,928299618,927446897,0,2001:569:7575:6200:6C64:1CFF:F3D1:CE9A,Tea Party Caucus,Added colour to infobox
2019-03-13T21:59:13+00:00,887637338,887637316,0,Wow,Template:Strom Thurmond series,also meaningless
2019-05-30T20:01:27+00:00,899551115,899551055,0,HapHaxion,Together Gibraltar,/* External links */
2019-10-01T21:55:56+00:00,919108996,919108116,0,Midnightblueowl,UK Independence Party,"Restoring logo size to its longstanding variant. No consensus was reached for its reduction in size, which doesn't really benefit the article."
2019-02-02T15:13:54+00:00,881431205,881005764,0,MassiveNewOrderFan,UK Independence Party,Update
2019-08-14T20:18:00+00:00,910838737,910797397,0,RoverTheBendInSussex,UK Independence Party,3 councillors defected to the Brexit Party today in Burnley.
2019-06-03T07:17:59+00:00,900071533,900053309,0,Cordyceps-Zombie,UK Independence Party,/* Leadership */
2019-01-31T18:26:18+00:00,881140526,881140172,0,Station1,United Conservative Party,Undid revision 881140172 by [[Special:Contributions/68.149.152.55|68.149.152.55]] ([[User talk:68.149.152.55|talk]])
2018-10-05T11:49:03+00:00,862595346,859408843,0,64.228.92.228,United Conservative Party,
2019-06-07T02:26:55+00:00,900687575,896553996,0,Longza,United Conservative Party,
2017-06-14T22:15:57+00:00,785694877,744931444,0,Materialscientist,User talk:85.255.232.163,[[WP:AES|←]]Replaced content with '==June 2017==  {{subst:uw-test2|Blazin' Squad ‎}} ~~~'
2019-01-03T02:36:05+00:00,876563360,876563147,0,AzN Egoist,User talk:Vif12vf,
2019-08-27T13:01:28+00:00,912720342,912719501,0,Novariensis,User talk:Vif12vf,
2019-01-30T18:51:00+00:00,880985325,859013189,0,EhOuiH,Uxbridge and South Ruislip (UK Parliament constituency),
2019-10-17T11:21:50+00:00,921706814,921706014,0,Unreal7,Uxbridge and South Ruislip (UK Parliament constituency),/* Elections in the 2010s */
2018-09-11T04:13:30+00:00,859013189,858967915,0,AusLondonder,Uxbridge and South Ruislip (UK Parliament constituency),"Undid revision 858967915 by [[Special:Contributions/92.236.106.34|92.236.106.34]] ([[User talk:92.236.106.34|talk]]) Move to correct section, remove content already above"
2019-12-03T13:02:27+00:00,929067184,929064717,0,North Shoreman,Whig Party (United States),Reverted edits by [[Special:Contribs/152.38.216.125|152.38.216.125]] ([[User talk:152.38.216.125|talk]]) to last version by Li'ljk100
2019-07-07T13:09:54+00:00,905185083,904206140,0,Beyond My Ken,Whig Party (United States),/* top */
2019-09-02T03:26:53+00:00,913610923,912565250,0,Patsonic1,Wildrose Party,
2018-09-23T01:42:32+00:00,860784788,859308860,0,WorldwideBallcaps,Wildrose Party,That should be Disestablishments in Alberta; the party was an Alberta-only one.
2019-05-15T11:14:33+00:00,897192571,897122393,0,Leutha,User talk:Vif12vf,/* Left wing or left of centre? */
2018-08-31T04:29:28+00:00,857352108,846487437,0,Hmains,Wildrose Party of Alberta,standard quote handling in WP;standard Apostrophe/quotation marks in WP; MOS general fixes
2019-07-13T23:59:49+00:00,906149881,906149560,0,Jessicapierce,William F. Buckley Jr.,No problem with previous content re-removal - main concern was formatting error (fixed here)
2019-06-30T06:37:15+00:00,904139337,903791020,0,42.106.12.254,William F. Buckley Jr.,
2019-06-08T17:22:58+00:00,900948759,900940253,0,MB,William F. Buckley Jr.,clean up
2019-07-08T19:19:52+00:00,905381319,905094981,0,2600:8800:2D00:D83:2C88:19E6:A1D1:FF62,William F. Buckley Jr.,
2019-12-10T18:05:12+00:00,930169248,930167098,0,North Shoreman,William Lloyd Garrison,Reverted edits by [[Special:Contribs/207.197.112.114|207.197.112.114]] ([[User talk:207.197.112.114|talk]]) to last version by AnomieBOT
2019-06-07T01:37:29+00:00,900681964,900681895,0,Anythingyouwant,William Lloyd Garrison,
2019-02-27T18:47:21+00:00,885386893,885386869,0,Serols,William Lloyd Garrison,Reverted edits by [[Special:Contributions/156.3.109.70|156.3.109.70]] ([[User talk:156.3.109.70|talk]]) ([[WP:HG|HG]]) (3.4.6)
2019-06-18T11:43:54+00:00,902375629,901803493,0,Balon Greyjoy,William McChesney Martin,"replacing curly quotation marks/apostrophes with straight ones, per [[MOS:']]  (via [[WP:JWB]])"
2019-08-24T09:11:52+00:00,912256495,909475559,0,JDAWiseman,William McChesney Martin,
2019-12-09T03:57:50+00:00,929928024,929926928,0,Elizium23,William F. Buckley Jr.,Reverted 1 edit by [[Special:Contributions/2600:8800:2D00:B10:B938:28FF:E13E:124B|2600:8800:2D00:B10:B938:28FF:E13E:124B]] ([[User talk:2600:8800:2D00:B10:B938:28FF:E13E:124B|talk]]): [[WP:CATV]] [[WP:EGRS]] unsourced ([[WP:TW|TW]])
