timestamp,revid,parentid,sock,user,page,message
2006-04-18T21:57:49+00:00,49064403,48955309,1,AznNYCer212,Horace Mann School,
2006-04-14T05:09:16+00:00,48379681,48338949,1,AznNYCer212,User talk:205.188.116.131,Vandalism
2006-04-14T05:08:41+00:00,48379622,48369575,1,AznNYCer212,Horace Mann School,rv from vandalism
2006-04-12T23:38:29+00:00,48194042,40373648,1,AznNYCer212,User talk:207.76.182.20,Vandalism
2006-04-12T23:37:26+00:00,48193900,48124723,1,AznNYCer212,The Cinemann,I checked the articles for deletion page and this article was not listed anywhere so it seems that last edit was an act of vandalism
2006-04-08T19:46:09+00:00,47590970,47587638,1,AznNYCer212,Horace Mann School,Uh the agora or whatever is not really an important publications calm down kiddeo
2006-03-17T16:31:12+00:00,44228657,43675474,1,AznNYCer212,User talk:Fbv65edel,
2006-03-08T22:33:07+00:00,42874137,42874061,1,AznNYCer212,Harkness table,grammar
2006-03-08T22:32:36+00:00,42874061,42873695,1,AznNYCer212,Harkness table,"Not only is that information not significant, it is false.  When I visited Exeter during 8th grade (I got in but decided to stay at HM), they showed me that the TEXTbook they used in Precalc."
2006-03-08T22:30:13+00:00,42873695,42372656,1,AznNYCer212,Harkness table,
2006-03-02T08:09:04+00:00,41876516,41800824,1,AznNYCer212,Horace Mann School,this part has long been established as belonging in this article
2006-02-27T14:30:32+00:00,41462125,41428597,1,AznNYCer212,Horace Mann School,"slightly revised, mostly changed"
2006-02-27T06:28:45+00:00,41428235,36969160,1,AznNYCer212,User talk:Nickg331,Nick Faba?
2006-02-27T06:28:01+00:00,41428172,40960293,1,AznNYCer212,User talk:Fbv65edel,Fin hahahahah
2006-02-27T06:24:28+00:00,41427871,40486867,1,AznNYCer212,User talk:Wikster72,Keane? Dennis Donnoly?
2006-02-27T05:16:43+00:00,41421584,0,1,AznNYCer212,User talk:69.3.194.231,
2006-02-27T05:15:53+00:00,41421509,41407010,1,AznNYCer212,Horace Mann School,previous version contained too much POV
2006-02-25T00:01:52+00:00,41090307,41090154,1,AznNYCer212,Talk:Horace Mann School,
2006-02-25T00:00:57+00:00,41090154,41016667,1,AznNYCer212,Talk:Horace Mann School,
2006-02-24T14:23:52+00:00,41015440,40961660,1,AznNYCer212,Talk:Horace Mann School,/* Additional evidence of HM being elite... */
2006-02-24T01:20:49+00:00,40946593,40943108,1,AznNYCer212,Talk:Horace Mann School,/* Additional evidence of HM being elite... */
2006-02-23T21:08:07+00:00,40911259,40882240,1,AznNYCer212,User talk:David D.,/* Dystopos */
2006-02-23T21:03:18+00:00,40910589,40895757,1,AznNYCer212,Horace Mann School,"Look Daycd and Dystopos, I don't understand, what more evidence do you need to prove HM is elite? The evidence is there...."
2006-02-23T09:37:16+00:00,40839397,40826173,1,AznNYCer212,User talk:David D.,
2006-02-23T01:50:39+00:00,40795746,40745270,1,AznNYCer212,Talk:Horace Mann School,Additional evidence of HM being elite...
2006-02-23T01:37:40+00:00,40794318,40793413,1,AznNYCer212,Horace Mann School,As cited in NY Times article
2006-02-23T01:36:41+00:00,40794205,40773269,1,AznNYCer212,User talk:David D.,Dystopos
2006-02-22T04:43:04+00:00,40670249,40668207,1,AznNYCer212,Horace Mann School,"as stated in NY Times article.  It is reasonable as per Wiki guidelines to assume the NY Times will be objective, especially when the info is consistant with all other sources...."
2006-02-22T03:31:34+00:00,40662284,40658930,1,AznNYCer212,Horace Mann School,What do you call Emily Park? She's obviously a girl and yet on Varsity Squash...
2006-02-22T03:30:04+00:00,40662116,40553559,1,AznNYCer212,User talk:152.163.100.195,Ali...
2006-02-22T02:31:50+00:00,40655594,40654747,1,AznNYCer212,Horace Mann School,http://gocrimson.collegesports.com/sports/m-soccer/spec-rel/111505aae.html
2006-02-22T02:28:00+00:00,40655169,40635469,1,AznNYCer212,Talk:Horace Mann School,JSA
2006-02-22T02:24:18+00:00,40654747,40634209,1,AznNYCer212,Horace Mann School,"Dyostopos--You're looking at the wrong article.  See the article about Josh Bernstien by Felicia R. Lee.  And this is the NYTimes not some local Alabama paper...the NYTimes doesn't do ""puff pieces"""
2006-02-21T22:05:14+00:00,40621507,40611671,1,AznNYCer212,Horace Mann School,"Please see NY Times article atributed below.  For those not familiar with the NY Times, it is perhaps the most respected Newspaper in the world.  It is not reasonable to assume that the author false."
2006-04-10T16:03:20+00:00,47814366,47796795,1,AO_Charles,User talk:Makemi/Archive2,Defense
2006-04-10T16:00:04+00:00,47813976,47752014,1,AO_Charles,User:AO Charles,
2006-04-10T04:48:13+00:00,47755707,47711234,1,AO_Charles,User talk:Jpgordon,Are you an anti-semite?
2006-04-10T04:15:33+00:00,47752310,47751954,1,AO_Charles,User:JDoorjam/Archive04,
2006-04-10T04:12:24+00:00,47752014,44439709,1,AO_Charles,User:AO Charles,
2006-04-10T04:11:47+00:00,47751954,47751853,1,AO_Charles,User:JDoorjam/Archive04,
2006-04-10T04:10:36+00:00,47751853,47745737,1,AO_Charles,User:JDoorjam/Archive04,Aeurian Order
2006-04-10T03:17:03+00:00,47746094,47698917,1,AO_Charles,Stormfront (website),rv from vandalism
2006-04-10T03:16:22+00:00,47745976,47743485,1,AO_Charles,Kevin MacDonald (evolutionary psychologist),rv from vandalism
2006-04-10T03:14:28+00:00,47745737,47745585,1,AO_Charles,User:JDoorjam/Archive04,What?
2006-04-09T05:20:44+00:00,47656358,47591717,1,AO_Charles,User talk:Jmabel,Agitator
2006-04-09T05:08:00+00:00,47655281,44834545,1,AO_Charles,User talk:DonSiano,Identification
2006-04-09T04:42:15+00:00,47652863,40297104,1,AO_Charles,User talk:Jacquerie27,AO
2006-04-09T04:34:22+00:00,47652140,17030593,1,AO_Charles,User talk:68.5.18.103,
2006-04-09T04:32:32+00:00,47651968,47649675,1,AO_Charles,Kevin MacDonald (evolutionary psychologist),rv vandalism
2006-04-09T04:31:45+00:00,47651889,47649423,1,AO_Charles,User talk:Jahiegel,Warning
2006-04-09T04:13:23+00:00,47650098,46683696,1,AO_Charles,George David Birkhoff,
2006-04-09T04:11:39+00:00,47649942,46953716,1,AO_Charles,"Jane Birdwood, Baroness Birdwood",
2006-04-09T04:07:14+00:00,47649525,43146540,1,AO_Charles,Seward Collins,
2006-04-09T04:02:56+00:00,47649154,47235802,1,AO_Charles,Kevin MacDonald (evolutionary psychologist),
2006-04-09T03:47:56+00:00,47647689,47625299,1,AO_Charles,Paul Fromm (white supremacist),
2006-04-09T03:44:30+00:00,47647348,46692757,1,AO_Charles,Amiri Baraka,
2006-04-09T03:41:57+00:00,47647051,44523445,1,AO_Charles,Lev Gumilev,
2006-04-09T03:29:46+00:00,47645769,38509739,1,AO_Charles,User talk:Poison sf,
2006-04-09T03:22:19+00:00,47645032,47258414,1,AO_Charles,Stormfront (website),"The reason that Storm front censors posting is to prevent anti-racist material from being posted, as stated (& cited) by information listed later in this article."
2006-04-09T01:23:07+00:00,47632397,47632100,1,AO_Charles,Arun Manilal Gandhi,spelling
2006-04-09T01:19:57+00:00,47632100,46510825,1,AO_Charles,Arun Manilal Gandhi,Original research is not permissible---Add citations or your additions will be immediately reverted.
2006-04-09T01:08:09+00:00,47630905,47630330,1,AO_Charles,User talk:71.3.195.125,
2006-04-09T01:03:01+00:00,47630330,44889492,1,AO_Charles,User talk:71.3.195.125,
2006-03-19T01:57:31+00:00,44440596,38212654,1,AO_Charles,Arun Manilal Gandhi,
2006-03-19T01:49:36+00:00,44439709,44115034,1,AO_Charles,User:AO Charles,
2006-03-16T22:02:44+00:00,44115034,44114784,1,AO_Charles,User:AO Charles,
2006-03-16T22:00:52+00:00,44114784,44114683,1,AO_Charles,User:AO Charles,
2006-03-16T22:00:08+00:00,44114683,0,1,AO_Charles,User:AO Charles,
2006-04-17T22:12:50+00:00,48904503,48407175,1,CabotTheWarrior,User talk:DickClarkMises,Please remember
2006-04-14T20:47:08+00:00,48469092,46646178,1,CabotTheWarrior,List of Jewish American politicians,
2006-04-14T20:15:04+00:00,48464857,48464824,1,CabotTheWarrior,User talk:Bastique,
2006-04-14T20:14:49+00:00,48464824,48461631,1,CabotTheWarrior,User talk:Bastique,What???
2006-04-14T19:50:50+00:00,48461631,48363996,1,CabotTheWarrior,User talk:Bastique,What?
2006-04-14T08:38:29+00:00,48394588,48382351,1,CabotTheWarrior,User talk:Will Beback/Revisions,Civility
2006-04-12T23:42:00+00:00,48194514,47294884,1,CabotTheWarrior,User talk:DickClarkMises,Jewish Libertarians
2006-02-26T21:07:23+00:00,41358945,41292216,1,CabotTheWarrior,Lew Rockwell,fixing someone's grammar
2006-02-24T02:21:13+00:00,40953603,40453924,1,CabotTheWarrior,Eric Margolis (journalist),remove POV
2006-02-24T01:53:33+00:00,40950451,0,1,CabotTheWarrior,User:CabotTheWarrior,
2006-02-24T01:48:48+00:00,40949835,35867207,1,CabotTheWarrior,Lew Rockwell,"Makes more sense..."""
2006-04-20T14:29:19+00:00,49289378,49277707,1,CaliforniaDreamlings,Talk:Joseph Sobran,
2006-04-20T05:58:15+00:00,49245611,47636934,1,CaliforniaDreamlings,Ludwig von Mises,
2006-04-20T05:55:53+00:00,49245440,49243980,1,CaliforniaDreamlings,Talk:Joseph Sobran,
2006-04-20T00:39:17+00:00,49211429,49211140,1,CaliforniaDreamlings,Joseph Sobran,RV to NPOV.  Stop vandalizing this page DJac75.
2006-04-20T00:31:42+00:00,49210469,49200715,1,CaliforniaDreamlings,Joseph Sobran,rv from grossly POV (positive) image of Sobran.  Look at the holistic vision of him...it isn't pretty...and the page should reflect that
2006-04-19T20:04:51+00:00,49173245,49148868,1,CaliforniaDreamlings,Liberty Lobby,RV POV.  This is not the first time DJac75 has been trying to defend anti-semites and/or anti-semitic organizations.
2006-04-19T20:02:04+00:00,49172884,49172294,1,CaliforniaDreamlings,Talk:Joseph Sobran,
2006-04-19T19:47:38+00:00,49170948,49170552,1,CaliforniaDreamlings,Joseph Sobran,"RV.  THIS version is soooo moderate it's not even funny.  The ""real world"" knows that Sobran is anti-semitic bigot, so this is goes really really easy on him.  Sobran is mainly known for his RACISM"
2006-04-18T08:02:03+00:00,48969467,48965002,1,CaliforniaDreamlings,User talk:DJac75,
2006-04-18T07:50:59+00:00,48968632,48968481,1,CaliforniaDreamlings,Joseph Sobran,the fact that he's an anti-semite/racist/homophobe/perverter of christianity.  Yeah.  And you can be damn sure I'm not the only one.  Google him.  You'll see that this is the overwhelimg concensus.
2006-04-18T07:48:58+00:00,48968481,48968263,1,CaliforniaDreamlings,Joseph Sobran,"DJac75: I am someone who has read Sobran's books and articles, and much of the information I know about him comes from his own website.  That said, I have also done reasearch on him and yielded the"
2006-04-18T07:46:01+00:00,48968257,48863599,1,CaliforniaDreamlings,Talk:Joseph Sobran,
2006-04-18T07:37:42+00:00,48967625,48967300,1,CaliforniaDreamlings,User talk:CaliforniaDreamlings,
2006-04-18T07:37:07+00:00,48967584,48967409,1,CaliforniaDreamlings,User talk:Tijuana Brass,
2006-04-18T07:29:42+00:00,48967047,48964969,1,CaliforniaDreamlings,User talk:CaliforniaDreamlings,
2006-04-18T07:26:28+00:00,48966800,48672780,1,CaliforniaDreamlings,User talk:Tijuana Brass,Nonsense
2006-04-18T07:24:42+00:00,48966663,48965024,1,CaliforniaDreamlings,Joseph Sobran,rv
2006-04-18T06:58:54+00:00,48964812,48963260,1,CaliforniaDreamlings,Institute for Historical Review,OH MY YOU SUPPORT NEO NAZIS???WOW WELL RV
2006-04-18T06:58:08+00:00,48964754,48962987,1,CaliforniaDreamlings,Joseph Sobran,SOBRANS A BIGGOT...DONT FORGET IT
2006-04-17T22:25:48+00:00,48906253,48084681,1,CaliforniaDreamlings,User talk:DJac75,Anti-Semitism
2006-04-17T22:20:32+00:00,48905534,48904962,1,CaliforniaDreamlings,LewRockwell.com,YEAH LIKE U THOUGHT I OF ALL PPL WOULD LET U POV EDIT THIS THING...YEAH RIGHT
2006-04-17T22:09:41+00:00,48904054,48879312,1,CaliforniaDreamlings,Antisemitism,GOT RID OF POV CRAP
2006-04-17T22:06:07+00:00,48903601,48230538,1,CaliforniaDreamlings,Gary North (economist),
2006-04-17T22:03:02+00:00,48903207,48901886,1,CaliforniaDreamlings,LewRockwell.com,"HEYY EVERY1 IM BACK.  JUST ACTUALLY CHECKED THE WIKI DEFINITION OF NEO-NAZI.  AND YES, THE IHR IS THAT"
2006-03-22T22:49:06+00:00,45011765,45010569,1,CaliforniaDreamlings,LewRockwell.com,I've already explained this
2006-03-22T22:24:23+00:00,45008337,45007904,1,CaliforniaDreamlings,LewRockwell.com,RV vandalism by DickClarkMises.  Dick is Lew's secretary and so obviously is gonna constantly defend him...
2006-03-22T21:55:16+00:00,45004171,45001321,1,CaliforniaDreamlings,LewRockwell.com,Hahahahah these POV edits of yours are ridiculous...stop vandalizing
2006-03-22T21:54:17+00:00,45004040,45001140,1,CaliforniaDreamlings,User talk:Bdj,Seems you think you're tuff
2006-03-22T21:50:40+00:00,45003566,44999345,1,CaliforniaDreamlings,Talk:Joseph Sobran,Hard Ball
2006-03-21T22:04:52+00:00,44857648,44780046,1,CaliforniaDreamlings,User talk:DickClarkMises,
2006-03-21T22:01:34+00:00,44857243,44538771,1,CaliforniaDreamlings,User talk:Wsiegmund,Civility
2006-03-21T07:18:35+00:00,44783164,44783047,1,CaliforniaDreamlings,Joseph Sobran,RV vandalism
2006-03-21T07:17:30+00:00,44783062,44778725,1,CaliforniaDreamlings,User talk:DJac75,
2006-03-21T07:12:57+00:00,44782650,44782545,1,CaliforniaDreamlings,Joseph Sobran,wording change
2006-03-21T07:11:33+00:00,44782545,44779024,1,CaliforniaDreamlings,Joseph Sobran,RV ANTI-SEMITIC VANDALISM
2006-03-21T06:21:18+00:00,44778286,44666255,1,CaliforniaDreamlings,User talk:DJac75,
2006-03-21T06:19:25+00:00,44778093,44684794,1,CaliforniaDreamlings,User talk:DickClarkMises,ACCUSATIONS II
2006-03-21T06:15:30+00:00,44777734,44751877,1,CaliforniaDreamlings,Stephan Kinsella,Do a search for his work and that's pretty damn clear
2006-03-21T06:13:31+00:00,44777546,44777303,1,CaliforniaDreamlings,Joseph Sobran,reason why he has an article in the first place
2006-03-21T06:11:58+00:00,44777408,44754892,1,CaliforniaDreamlings,LewRockwell.com,RV TO CORRECT VERSION
2006-03-21T06:10:50+00:00,44777303,44775616,1,CaliforniaDreamlings,Joseph Sobran,HEY JAC....WHY DONT U TAKE RACISM SENSITIVITY CLASSES YOU NEED THEM
2006-03-21T06:09:53+00:00,44777227,44727897,1,CaliforniaDreamlings,User talk:Will Beback/Revisions,CIVILITY
2006-03-20T07:52:48+00:00,44629993,44584525,1,CaliforniaDreamlings,User talk:DJac75,COINCIDENCE?
2006-03-20T07:50:25+00:00,44629792,44621305,1,CaliforniaDreamlings,Joseph Sobran,RV...STOP THE LIES DJAC...
2006-03-20T03:22:51+00:00,44603091,44545451,1,CaliforniaDreamlings,User talk:DickClarkMises,
2006-03-19T20:11:40+00:00,44545555,44536156,1,CaliforniaDreamlings,Joseph Sobran,GOT RID OF THE ANTI-SEMITIC PARTS
2006-03-19T20:10:43+00:00,44545451,44238500,1,CaliforniaDreamlings,User talk:DickClarkMises,ACCUSATIONS
2006-03-17T02:51:37+00:00,44152825,44152762,1,CaliforniaDreamlings,Joseph Sobran,PROVIDE CITATION OR DONT PUT IT DAMMIT
2006-03-17T02:51:00+00:00,44152762,44152704,1,CaliforniaDreamlings,Joseph Sobran,THIS GUY IS NOT A JOURNALIST HAHAHAHAH
2006-03-17T02:50:27+00:00,44152704,44152221,1,CaliforniaDreamlings,Joseph Sobran,NOTHING LESS THAN THIS...PERIOD
2006-03-17T02:47:13+00:00,44152350,44145414,1,CaliforniaDreamlings,User:DJac75,
2006-03-17T02:46:43+00:00,44152296,44067280,1,CaliforniaDreamlings,User:CaliforniaDreamlings,
2006-03-17T02:45:03+00:00,44152140,44134424,1,CaliforniaDreamlings,Lew Rockwell,LET OFF IT DICK...JUST CUZ YOU THINK ITS OKAY TO BE A NAZI/RACIST/ANTI-SEMITE DOESNT MEAN THOSE BELIEFS ARNT CLEAAARLY CONTROVRSIAL
2006-03-17T02:42:46+00:00,44151895,44148272,1,CaliforniaDreamlings,Joseph Sobran,Revision from ridiculous vandalism...I think 3 RR has been violated
2006-03-16T15:59:53+00:00,44066000,44065597,1,CaliforniaDreamlings,Joseph Sobran,GODDAMIT PLEASE STOP MISLEADING PEOPLE
2006-03-16T15:58:14+00:00,44065798,43821034,1,CaliforniaDreamlings,User talk:DJac75,STOP IT
2006-03-16T15:49:44+00:00,44064798,44063661,1,CaliforniaDreamlings,Joseph Sobran,STOP IT WITH THE DAMN FIGHTING HERE ITS AN EFFIN ENCYCLOPEDIA NOT A PLACE FOR FIGHTING.  LEAVE IT LIKE THIS.  STOP EDITING IT THIS.
2006-03-15T21:33:07+00:00,43947402,43908949,1,CaliforniaDreamlings,User talk:DickClarkMises,Vandalism
2006-03-15T21:32:19+00:00,43947291,43912821,1,CaliforniaDreamlings,Joseph Sobran,"Whether individuals like Sobran is up to them, but it is clearly controversial."
2006-03-07T00:52:39+00:00,42567338,42216658,1,CaliforniaDreamlings,User talk:WHEELER,
2006-03-07T00:49:50+00:00,42566971,42559130,1,CaliforniaDreamlings,Talk:Joseph Sobran,
2006-03-06T22:45:57+00:00,42550165,34436952,1,CaliforniaDreamlings,Talk:Joseph Sobran,
2006-03-06T22:43:26+00:00,42549748,42549612,1,CaliforniaDreamlings,Joseph Sobran,removing violation of Wikipolicy on original research...
2006-03-06T22:42:35+00:00,42549612,42549367,1,CaliforniaDreamlings,Joseph Sobran,"no citation...needs factual basis...and as for second edit, this matches up with history, not the previous version"
2006-03-06T22:40:57+00:00,42549367,42549087,1,CaliforniaDreamlings,Joseph Sobran,no sense is mincing words...saying that B&P thought his tone was anti-semitic is dishonest...they identified him as an anti-semite
2006-03-06T22:38:54+00:00,42549087,41376996,1,CaliforniaDreamlings,Joseph Sobran,"""Griffin Internet"" is not national syndication, and Joseph Sobran isn't a journalist"
2006-04-25T03:14:42+00:00,50027448,49603205,1,CherryPop,User talk:Fbv65edel,Discussion
2006-04-25T03:13:00+00:00,50027259,50027132,1,CherryPop,Horace Mann School,
2006-04-25T03:11:58+00:00,50027132,50026851,1,CherryPop,Horace Mann School,
2006-04-25T03:09:44+00:00,50026851,50014095,1,CherryPop,Horace Mann School,Please make sure this page meets Wikipedia's standards of notability--Thanks!
2006-04-24T22:59:36+00:00,49992332,49985328,1,CherryPop,Talk:Horace Mann School,
2006-04-24T16:47:59+00:00,49940183,49939816,1,CherryPop,Talk:Horace Mann School,
2006-04-24T16:17:48+00:00,49936231,49926075,1,CherryPop,User talk:David D.,Hi
2006-04-24T16:15:46+00:00,49935979,47404121,1,CherryPop,Talk:Horace Mann School,Clubs
2006-04-24T16:13:34+00:00,49935693,49934250,1,CherryPop,Horace Mann School,"rv - please discuss changes on the discussion page, thanks"
2006-04-24T00:33:32+00:00,49838686,49838423,1,CherryPop,Horace Mann School,rv
2006-04-24T00:33:12+00:00,49838640,0,1,CherryPop,User talk:Jing83,
2006-04-23T20:38:48+00:00,49804562,49770619,1,CherryPop,Horace Mann School,
2006-04-23T05:04:33+00:00,49709394,49709241,1,CherryPop,Horace Mann School,
2006-04-23T05:02:47+00:00,49709241,49416543,1,CherryPop,Horace Mann School,
2006-04-19T03:36:29+00:00,49109910,48961838,1,CherryPop,User talk:Heah,3rr
2006-04-19T02:51:56+00:00,49104072,49103642,1,CherryPop,Wikipedia:Administrators' noticeboard/Edit warring,
2006-04-19T02:44:30+00:00,49102901,49101684,1,CherryPop,Horace Mann School,NYC5:  You have violated Wikipedia's 3RR Rule.  This is your last warning. Further vandalism of this article will be reported.
2006-04-19T02:21:28+00:00,49099802,49099683,1,CherryPop,Horace Mann School,Please try to follow Wikipolicies at all times.  Thanks.
2006-04-19T01:52:38+00:00,49096324,49095793,1,CherryPop,Horace Mann School,RV to NPOV
2006-04-15T19:29:03+00:00,48602046,0,1,CherryPop,User talk:66.92.39.176,
2006-04-15T19:27:14+00:00,48601873,48579616,1,CherryPop,Horace Mann School,"proper history, other joined later"
2006-04-15T17:16:30+00:00,48586567,45317038,1,CherryPop,User:CherryPop,
2006-04-15T16:18:22+00:00,48580207,48536419,1,CherryPop,Collegiate School (New York City),I'm sorry but I can't just let this happen...I don't know where these POV edits are coming from but that Collegiate is the oldest school in the US period is a matter of historical fact...
2006-04-15T16:15:57+00:00,48579987,48022094,1,CherryPop,User talk:David D.,HM
2006-04-15T16:12:17+00:00,48579616,48532869,1,CherryPop,Horace Mann School,"Yes--not only are these clubs important to the HM article, but they are notable as per Wikipedia's standards bc many of them are some of the leading clubs at any high school for their respective types"
2006-04-14T23:56:41+00:00,48494680,0,1,CherryPop,User talk:TexMex12,
2006-04-14T23:55:21+00:00,48494518,48492291,1,CherryPop,Collegiate School (New York City),rv of pov deletion...Collegiate IS the oldest academic institution in the USA..and I go to HM one of Collegiate
2006-04-14T23:53:27+00:00,48494286,48490662,1,CherryPop,Horace Mann School,rv deletion of significant information by editor with history of POV edits
2006-04-14T20:22:44+00:00,48465785,48465548,1,CherryPop,Horace Mann School,
2006-04-14T20:20:47+00:00,48465548,48379622,1,CherryPop,Horace Mann School,
2006-04-05T03:21:54+00:00,47032430,44721135,1,CherryPop,Kerry Kennedy,"The Kennedy School of Government is at Harvard, not some shit school in the midwest haha"
2006-04-03T01:28:47+00:00,46674408,46656212,1,CherryPop,User talk:Weyes,Cinemann
2006-04-03T01:25:36+00:00,46674052,46640125,1,CherryPop,The Cinemann,Reversion from vandalism
2006-04-02T03:26:32+00:00,46543413,46543397,1,CherryPop,James R. Schlesinger,
2006-04-02T03:26:19+00:00,46543397,46162828,1,CherryPop,James R. Schlesinger,
2006-04-02T03:25:21+00:00,46543281,46541478,1,CherryPop,Horace Mann School,rv
2006-04-01T05:40:34+00:00,46420269,46223925,1,CherryPop,Horace Mann School,
2006-04-01T05:38:12+00:00,46420087,46413871,1,CherryPop,Henry Winkler,added high school
2006-03-24T18:41:42+00:00,45296726,45202468,1,CherryPop,The Cinemann,
2006-03-24T18:39:25+00:00,45296443,45191317,1,CherryPop,User talk:Dystopos,[[The Cinemann]]
2006-03-24T02:36:25+00:00,45203611,42245646,1,CherryPop,Bill Weld,
2006-03-24T02:27:48+00:00,45202468,45169515,1,CherryPop,The Cinemann,
2006-03-24T00:59:41+00:00,45191317,43172835,1,CherryPop,User talk:Dystopos,Deletion?
2006-03-23T22:39:00+00:00,45169515,45169058,1,CherryPop,The Cinemann,
2006-03-23T22:36:08+00:00,45169058,45168758,1,CherryPop,The Cinemann,
2006-03-23T22:34:18+00:00,45168758,45168490,1,CherryPop,The Cinemann,
2006-03-23T22:32:39+00:00,45168490,0,1,CherryPop,The Cinemann,
2006-03-23T22:27:44+00:00,45167669,45117370,1,CherryPop,Horace Mann School,
2006-04-20T01:13:56+00:00,49215717,49211532,1,CMUAfroAmerStudiesKid,Joseph Sobran,Take it from me---I've been studying this guy---& he's not worth defending.  RV>
2006-04-16T05:07:59+00:00,48664986,48661442,1,CMUAfroAmerStudiesKid,Randal Pinkett,RV of POV vandalism
2006-03-20T20:42:27+00:00,44707001,41227040,1,CMUAfroAmerStudiesKid,User:CMUAfroAmerStudiesKid,
2006-03-20T20:31:08+00:00,44705484,44699481,1,CMUAfroAmerStudiesKid,LewRockwell.com,"RV (I removed this false information, since after searching through LRC I see that Francis is indeed published there)"
2006-03-20T20:28:19+00:00,44705168,44702876,1,CMUAfroAmerStudiesKid,Stephan Kinsella,"RV to reflect info about degree to which Kinsella lacks notability, and also he clearly isnt an alum of LSE as he doesn't even claim to have a degree from there"
2006-03-20T19:23:14+00:00,44697217,44678963,1,CMUAfroAmerStudiesKid,Stephan Kinsella,RV edit. I've just come from seeing the controversy on this man at the LewRockwell.com article.  DMC you say it's easily sourced but where are the sources? Let's see some proof he has those degrees...
2006-03-20T19:19:37+00:00,44696753,44696356,1,CMUAfroAmerStudiesKid,Joseph Sobran,grammar
2006-03-20T19:18:53+00:00,44696671,44686232,1,CMUAfroAmerStudiesKid,LewRockwell.com,"Dayumm...its you DCM who needz to take a look at the talk page...if we can say Kinsella doesn't think Sam Francis was with them, then Jamal Benson can say they were"
2006-03-20T19:16:01+00:00,44696356,44691412,1,CMUAfroAmerStudiesKid,Joseph Sobran,RV to pre-vandalized version
2006-03-10T21:31:16+00:00,43195907,42824828,1,CMUAfroAmerStudiesKid,Randal Pinkett,
2006-03-08T16:24:29+00:00,42824828,42816938,1,CMUAfroAmerStudiesKid,Randal Pinkett,"As a black man, I'm embaressed by the POV that was in this article.  Dayummm nigas...Have some self respect and some respect for your race....dont be self-conscious about being black"
2006-02-25T22:57:07+00:00,41229020,41222115,1,CMUAfroAmerStudiesKid,Talk:Lew Rockwell,
2006-02-25T22:50:34+00:00,41228150,41227938,1,CMUAfroAmerStudiesKid,Pat Buchanan,
2006-02-25T22:48:52+00:00,41227938,40645483,1,CMUAfroAmerStudiesKid,Pat Buchanan,
2006-02-25T22:42:06+00:00,41227040,0,1,CMUAfroAmerStudiesKid,User:CMUAfroAmerStudiesKid,
2006-04-25T07:59:57+00:00,50053464,50049896,1,JudyQ,Talk:Horace Mann School,
2006-04-25T07:11:05+00:00,50049896,50049685,1,JudyQ,Talk:Horace Mann School,
2006-04-25T07:08:16+00:00,50049685,50038040,1,JudyQ,Talk:Horace Mann School,
2006-04-25T07:07:02+00:00,50049591,50021519,1,JudyQ,Riverdale Country School,
2006-04-25T07:06:15+00:00,50049547,49867642,1,JudyQ,Dalton School,
2006-04-19T01:33:29+00:00,49093743,47760751,1,PaulsonHJ,Arun Manilal Gandhi,rv to npov
2006-04-19T19:37:07+00:00,49169914,49168476,1,TheDookieMan,Joseph Sobran,partial RV
2006-04-19T19:34:10+00:00,49169646,49168340,1,TheDookieMan,Talk:Joseph Sobran,
2006-04-19T19:15:59+00:00,49168061,49167784,1,TheDookieMan,Joseph Sobran,"See talk page, I did searches and found nothing from Sobran from LA Times or UPS in their records"
2006-04-19T19:11:14+00:00,49167784,49167703,1,TheDookieMan,Joseph Sobran,
2006-04-19T19:09:30+00:00,49167703,49167587,1,TheDookieMan,Joseph Sobran,If we're going to put all this other stuff about him then the thing that makes sig to most Wikireaders should be listed in the headline in addition to his works
2006-04-19T19:07:11+00:00,49167587,49160632,1,TheDookieMan,Joseph Sobran,
2006-04-19T19:05:00+00:00,49167484,49153066,1,TheDookieMan,Talk:Joseph Sobran,
2006-04-19T06:17:20+00:00,49126047,49122919,1,TheDookieMan,User talk:DJac75,
2006-04-19T06:16:52+00:00,49126014,49122515,1,TheDookieMan,Talk:Joseph Sobran,
2006-04-17T18:09:31+00:00,48870319,48849264,1,TheDookieMan,LewRockwell.com,rv with a change...see talk page for explanation
2006-04-17T18:07:22+00:00,48870099,48863983,1,TheDookieMan,Talk:LewRockwell.com,
2006-04-17T16:29:48+00:00,48858746,48851109,1,TheDookieMan,Talk:LewRockwell.com,
2006-04-17T05:31:53+00:00,48804778,0,1,TheDookieMan,User talk:Larougite,
2006-04-17T05:22:27+00:00,48804000,48803696,1,TheDookieMan,LewRockwell.com,rv...I just really can't figure out why anyone would want to defend Joe Sobran??
2006-04-17T05:16:33+00:00,48803465,48776438,1,TheDookieMan,Talk:LewRockwell.com,
2006-04-17T05:06:23+00:00,48802573,48799962,1,TheDookieMan,Institute for Historical Review,RV...Here's to hoping that the edit war ends here!
2006-04-17T05:04:32+00:00,48802402,48799861,1,TheDookieMan,LewRockwell.com,RV from POV...you know..I was really hoping it wouldn't come to this
2006-04-16T23:53:52+00:00,48768548,47372108,1,TheDookieMan,Talk:Joseph Sobran,
2006-04-16T23:52:07+00:00,48768340,48765863,1,TheDookieMan,LewRockwell.com,Rogerman's right here...no reason not to provide clarification..the fact that North has called for the stonings isnt explicitly in the source either so why remove this...it gives the reader more info
2006-04-16T00:19:27+00:00,48637369,40526615,1,TheDookieMan,Norbert Brainin,This information will be removed until proper citation is placed
2006-04-15T17:31:58+00:00,48588394,48426987,1,TheDookieMan,Lyndon LaRouche,The citation that was listed went to a blank page...so that information will be kept off this page until proper documentation can be put forth...as per Wikipolicies...sorry Rouchers
2006-04-15T05:22:14+00:00,48528120,40222476,1,TheDookieMan,User talk:12.218.144.90,
2006-04-15T05:20:56+00:00,48527995,43538773,1,TheDookieMan,User talk:203.213.77.138,
2006-04-15T00:00:08+00:00,48495041,48494955,1,TheDookieMan,Abraham Foxman,"Again, no sourcing, obviously POV and not suitable for this article..."
2006-04-14T23:59:21+00:00,48494955,47871419,1,TheDookieMan,Abraham Foxman,POV statement that lacked any sourcing...
2006-03-23T22:13:54+00:00,45165444,45165200,1,TheDookieMan,User talk:Bdj,
2006-03-23T22:12:54+00:00,45165301,45163234,1,TheDookieMan,LewRockwell.com,Reversion from vandalism
2006-03-23T22:11:10+00:00,45165023,45162681,1,TheDookieMan,Talk:LewRockwell.com,
2006-03-23T22:08:22+00:00,45164613,45023756,1,TheDookieMan,User talk:Bdj,Vandalism
2006-03-23T21:33:10+00:00,45159617,45158461,1,TheDookieMan,LewRockwell.com,RV vandalism
2006-03-23T21:15:14+00:00,45157971,45154423,1,TheDookieMan,LewRockwell.com,"This is ridiculous, the Institute for Historical Review openly admits it denies the Holocaust..."
2006-03-22T23:49:05+00:00,45019385,45019044,1,TheDookieMan,LewRockwell.com,"DickClarkMises, Please stop vandalizing this page."
2006-03-22T23:40:42+00:00,45018380,45013000,1,TheDookieMan,LewRockwell.com,As per WillBeback's suggestions
2006-03-22T04:04:12+00:00,44901606,44858489,1,TheDookieMan,User talk:DickClarkMises,3RR
2006-03-22T04:02:19+00:00,44901438,44833997,1,TheDookieMan,Stephan Kinsella,"Not sure that DickClarkMises should be the one editing the article as he is an associate of Kinsella's organization, The Mises Institute"
2006-03-22T03:28:31+00:00,44897717,44876567,1,TheDookieMan,Joseph Sobran,"DJac75..you have violated Wikipedia's 3RR rule.  Please avoid vandalizing articles in the future.  Cheers, TheDookieMan"
2006-03-21T23:07:05+00:00,44865705,44858815,1,TheDookieMan,LewRockwell.com,"RV. DickClarkMises, please be sure to avoid 3RR violations."
2006-03-21T22:30:06+00:00,44860906,44858942,1,TheDookieMan,Joseph Sobran,"DickClarkMises, please consider your position.  I've looked through the history here, and it seems that the Wikipedia community doesn't believe your version is a fair portrayal of Sobran."
2006-03-21T22:08:32+00:00,44858103,44856651,1,TheDookieMan,Joseph Sobran,Reversion
2006-03-21T22:07:12+00:00,44857931,44834073,1,TheDookieMan,LewRockwell.com,Reversion of vandalism via DickClarkMises
2006-03-20T17:38:42+00:00,44685621,44683588,1,TheDookieMan,LewRockwell.com,rv...Kinsella is not notable..nor is this POV information appropriate for this page...lets keep it copesitic...please
2006-03-20T17:35:19+00:00,44685214,44685081,1,TheDookieMan,Wikipedia:Administrators' noticeboard/Edit warring,
2006-03-20T17:34:04+00:00,44685081,44667696,1,TheDookieMan,Wikipedia:Administrators' noticeboard/Edit warring,
2006-03-20T17:18:04+00:00,44683268,44676544,1,TheDookieMan,LewRockwell.com,"DickClark, I'd suggest that you take a loot at the other discussions regarding Kinsella.  However notable he is in your eyes, he is not notable as per Wikipedia's guidelines."
2006-03-20T17:16:23+00:00,44683083,44674114,1,TheDookieMan,Joseph Sobran,"DickClark, I'll conceed the point with regards to accused rather than identified.  But the rest of DJac's insertions have to go----, it's completely POV and counterfactual, and counter to Wikrules"
2006-03-20T17:12:47+00:00,44682718,44671371,1,TheDookieMan,User talk:DickClarkMises,Controversy
2006-03-20T15:41:08+00:00,44672101,44671088,1,TheDookieMan,Joseph Sobran,"My reading is evidentally different from yours DJac, because I see Buckley as being fully clear on why he fired Sobran---the reason being what he describes as ""Sobran's anti-semitic prejudice""."
2006-03-20T15:09:34+00:00,44668752,44666384,1,TheDookieMan,Joseph Sobran,Not exactly happen that I'm participating in a rv battle but what the heck eh?
2006-03-20T01:03:45+00:00,44585183,44236693,1,TheDookieMan,LewRockwell.com,"I've looked over the history here and it's clear the decision was made to keep this discussion limited.  DickClarkMises, if you want to pump up Lew Rockwell, do it on your blog, not here."
2006-03-20T01:00:04+00:00,44584679,0,1,TheDookieMan,User:TheDookieMan,
2006-03-20T00:59:02+00:00,44584525,44230362,1,TheDookieMan,User talk:DJac75,
2006-03-20T00:56:47+00:00,44584212,44551595,1,TheDookieMan,Talk:Joseph Sobran,
2006-04-25T04:56:06+00:00,50038040,50036573,1,WikiUser901,Talk:Horace Mann School,
2006-02-04T23:07:40+00:00,38212654,34024995,0,D6,Arun Manilal Gandhi,adding [[category:Living people]]
2006-02-28T16:24:59+00:00,41623782,41623226,0,128.252.173.73,Amiri Baraka,/* Career */
2006-03-14T22:42:09+00:00,43796792,43753529,0,Jayjg,Antisemitism,/* Anti-Semitic conspiracy theories */ removing unsourced POV
2006-03-04T02:47:11+00:00,42144159,42110397,0,137.165.218.174,Collegiate School (New York City),
2006-03-28T21:14:26+00:00,45906006,45905724,0,200.50.91.140,Collegiate School (New York City),
2006-04-06T11:13:27+00:00,47234963,47232261,0,Robert Lindsay,Antisemitism,
2006-02-28T01:09:39+00:00,41541087,41540167,0,Phl,Abraham Foxman,revert vandalism
2006-04-01T22:27:34+00:00,46510825,46510760,0,24.11.163.197,Arun Manilal Gandhi,/* The present */
2006-03-21T03:59:46+00:00,44763988,44763936,0,Jayjg,Abraham Foxman,/* External links */
2006-04-10T05:40:22+00:00,47760751,47632397,0,Calton,Arun Manilal Gandhi,"delete obvious smear - original research is not allowed, you know"
2006-03-21T23:53:37+00:00,44871439,44868553,0,56.0.84.24,Arun Manilal Gandhi,/* The present */
2006-03-30T23:56:01+00:00,46241774,46241472,0,Hall Monitor,Arun Manilal Gandhi,Reverted edits by [[Special:Contributions/141.129.1.98|141.129.1.98]] ([[User talk:141.129.1.98|talk]]) to last version by 56.0.84.24
2006-03-17T15:10:24+00:00,44219309,44219261,0,66.228.120.36,Abraham Foxman,
2006-03-04T21:49:05+00:00,42245646,41241970,0,Bobblewik,Bill Weld,units
2006-04-13T15:39:39+00:00,48285562,48141350,0,Prez2016,Bill Weld,Changed Category Title
2006-03-31T15:35:06+00:00,46327598,46142034,0,70.19.11.6,Amiri Baraka,attributed quotation
2006-04-10T02:55:04+00:00,47743501,47650098,0,JDoorjam,George David Birkhoff,Reverted edits by [[Special:Contributions/AO Charles|AO Charles]] ([[User talk:AO Charles|talk]]) to last version by Mhym
2006-03-16T02:55:53+00:00,43988288,42144159,0,Kinglouisxxii,Collegiate School (New York City),the pride of the school does not lie in its wrestling team but in its baseball team
2006-04-22T22:36:03+00:00,49662464,49662321,0,152.163.100.13,Collegiate School (New York City),
2006-03-06T17:59:55+00:00,42508536,42508476,0,Mushroom,Gary North (economist),oops
2006-04-11T03:12:30+00:00,47899050,47829974,0,Ace Class Shadow,Henry Winkler,/* Personal life */ Wikified.
2006-03-06T19:19:40+00:00,42519526,42518471,0,Msjo425,Horace Mann School,
2006-04-21T08:30:06+00:00,49416554,49390997,0,Jing83,Dalton School,/* Interscholastic competition */
2006-03-17T09:34:44+00:00,44189466,42874137,0,Gurch,Harkness table,independant -> independent
2006-04-14T23:37:29+00:00,48492388,48275973,0,WhyAskWhy,Dalton School,
2006-03-08T03:28:01+00:00,42751774,42519526,0,Nv8200pa,Horace Mann School,/* Admission */
2006-04-06T19:34:57+00:00,47294106,46824947,0,Mcasey666,Eric Margolis (journalist),typos
2006-02-20T19:05:36+00:00,40462345,40462264,0,136.167.216.89,Harkness table,
2006-04-03T02:44:36+00:00,46683696,46678660,0,Mhym,George David Birkhoff,/* External link */  bio article link added
2006-04-04T19:51:38+00:00,46972418,44849841,0,Kyorosuke,Gary North (economist),Add dismabig
2006-03-05T20:57:54+00:00,42385882,42194641,0,Fbv65edel,Horace Mann School,/* Athletics */
2006-03-10T02:22:27+00:00,43069270,42751774,0,Fbv65edel,Horace Mann School,/* Divisions */
2006-03-16T18:11:49+00:00,44083517,43933217,0,207.76.182.20,Horace Mann School,"Squash is actually co-ed. I'm on the team, so I should know."
2006-04-06T23:23:57+00:00,47324681,47323016,0,Wikster72,Horace Mann School,
2006-04-12T03:18:05+00:00,48062727,48047446,0,Wikster72,Horace Mann School,/* School newspaper */ more accurate for content of section
2006-03-28T15:34:33+00:00,45865187,45811940,0,Fbv65edel,Horace Mann School,/* Athletics */
2006-02-27T18:43:42+00:00,41490392,41489716,0,Daycd,Horace Mann School,rv POV
2006-04-25T00:40:05+00:00,50006502,50001626,0,Wikster72,Horace Mann School,/* Co-Curricular Activities */ beginnings of a clubs list - edits welcome
2006-03-27T19:15:22+00:00,45740230,45648891,0,Fbv65edel,Horace Mann School,/* Arts */
2006-04-06T02:45:17+00:00,47193552,47189357,0,Fbv65edel,Horace Mann School,"Rv to last version by me. It does matter if it ""didn't work,"" hypothetically the rule is still in effect"
2006-03-13T02:31:43+00:00,43525964,43502233,0,68.167.66.141,Horace Mann School,/* Model UN */
2006-03-25T05:50:34+00:00,45379729,45379680,0,140.247.187.65,Horace Mann School,
2006-02-23T09:24:25+00:00,40838431,40838358,0,140.247.187.65,Horace Mann School,/* Recognition */
2006-03-02T14:38:09+00:00,41904767,41876516,0,Dystopos,Horace Mann School,"moving claims of notability back to intro, other minor editing (see talk page)"
2006-02-22T05:45:49+00:00,40676213,40676180,0,152.163.100.195,Horace Mann School,/* The Junior State of America */
2006-03-01T21:07:47+00:00,41800824,41800732,0,Daycd,Horace Mann School,remove repeated section
2006-04-24T17:01:16+00:00,49941997,49941752,0,Tizio,Horace Mann School,"/* The Cinemann */ already said above, self-rv"
2006-04-18T04:59:49+00:00,48955309,48955267,0,NYC5,Horace Mann School,/* Rankings */
2006-04-12T01:08:39+00:00,48047446,48047138,0,NYC5,Horace Mann School,/* Rankings */
2006-04-21T08:29:59+00:00,49416543,49415775,0,Jing83,Horace Mann School,typo
2006-04-07T04:41:33+00:00,47360841,47360539,0,68.161.21.228,Horace Mann School,/* School newspaper */
2006-03-04T13:50:31+00:00,42194641,41904767,0,68.199.29.48,Horace Mann School,/* Athletics */
2006-03-20T23:36:20+00:00,44729931,44699279,0,67.101.30.233,Horace Mann School,/* School newspaper */
2006-03-14T22:59:46+00:00,43799361,43525964,0,Wongo31,Horace Mann School,/* School newspaper */
2006-03-17T03:07:16+00:00,44154614,44154575,0,140.247.187.65,Horace Mann School,/* School newspaper */
2006-02-25T19:38:34+00:00,41203628,41112511,0,24.199.121.7,Horace Mann School,/* Notable alumni */
2006-03-23T05:25:06+00:00,45062938,45062913,0,Che1081,Horace Mann School,/* Model UN */
2006-03-26T17:27:17+00:00,45582530,45582499,0,Daycd,Horace Mann School,/* References */
2006-03-20T03:34:35+00:00,44604476,44515964,0,172.161.230.240,Horace Mann School,
2006-03-29T06:48:17+00:00,45975592,45975496,0,24.44.60.117,Horace Mann School,/* Alumni */
2006-02-25T02:44:09+00:00,41109817,40947806,0,Dystopos,Horace Mann School,"replacing ""elite"" with ""highly-ranked"" (which is verifiable)"
2006-04-09T01:39:49+00:00,47634107,47618347,0,Sportsbang,Horace Mann School,"no proof, need proof"
2006-03-19T16:15:59+00:00,44515964,44515572,0,24.168.130.21,Horace Mann School,/* School newspaper */
2006-04-10T08:59:19+00:00,47776194,47409618,0,Nkm~enwiki,Institute for Historical Review,/* Criticism of methods */
2006-03-23T04:44:39+00:00,45058454,44511163,0,68.82.127.23,Institute for Historical Review,/* Journal of Historical Review */
2006-02-21T18:28:49+00:00,40594549,40500507,0,66.153.58.154,Institute for Historical Review,/* Alleged links to Muslim anti-Semites */
2006-03-08T20:28:53+00:00,42856883,40603122,0,SmackBot,James R. Schlesinger,RM caps in section headers and/or minor fixes using [[Wikipedia:AutoWikiBrowser|AWB]]
2006-04-05T04:50:44+00:00,47042087,46543413,0,64.1.167.47,James R. Schlesinger,/* Dismissal as Secretary of Defense */
2006-04-10T02:16:46+00:00,47738722,47649942,0,Jpgordon,"Jane Birdwood, Baroness Birdwood",Reverted edits by [[Special:Contributions/AO Charles|AO Charles]] ([[User talk:AO Charles|talk]]) to last version by Keresaspa
2006-03-30T13:37:58+00:00,46162828,42856883,0,Msoos,James R. Schlesinger,"/* Yom Kippur War and Cyprus crisis */ Airlifting was only 10% - see Yom Kippur war article. Shipping must be mentioned, since that was 90%"
2006-01-26T17:07:48+00:00,36810737,36383003,0,Kbdank71,"Jane Birdwood, Baroness Birdwood",[[WP:AWB|AWB assisted]] per [[WP:CFD]] [[Wikipedia:Categories for deletion/Log/2006 January 12|Jan 12]]
2006-03-22T15:50:12+00:00,44960622,44907229,0,Katefan0,Joseph Sobran,protected
2006-03-25T20:12:00+00:00,45458145,44960622,0,Xezbeth,Joseph Sobran,cat
2006-02-26T23:04:51+00:00,41376996,41376886,0,Will Beback,Joseph Sobran,rm easter-egg link from quote
2006-03-17T03:03:19+00:00,44154177,44153864,0,DJac75,Joseph Sobran,His Wanderer articles appear on his website--is this an actual controversy?
2006-04-21T19:32:46+00:00,49486852,49480994,0,Bob A,Joseph Sobran,
2006-04-22T22:03:58+00:00,49657986,49648965,0,Will Beback,Joseph Sobran,"/* Current political philosophy */ copyedit, ""faith"" is not mentioned"
2006-03-19T01:40:21+00:00,44438611,44412900,0,Rogerman,Joseph Sobran,
2006-02-10T00:10:38+00:00,38992148,38822475,0,DJac75,Joseph Sobran,
2006-04-20T01:31:50+00:00,49217843,49217821,0,Aaron Schulz,Joseph Sobran,+{{protected}}
2006-03-11T08:56:00+00:00,43269201,43269105,0,Will Beback,Joseph Sobran,"fmt, no mention of Rothbard as an ""old friend"", simply that they met"
2006-03-21T08:25:44+00:00,44788203,44788147,0,DJac75,Joseph Sobran,
2006-03-21T02:47:49+00:00,44755118,44750710,0,Antandrus,Joseph Sobran,Reverted edits by [[Special:Contributions/ThatProLibertyGuy|ThatProLibertyGuy]] ([[User talk:ThatProLibertyGuy|talk]]) to last version by DickClarkMises
2006-04-18T22:24:41+00:00,49068194,49062980,0,Rogerman,Joseph Sobran,
2006-03-18T12:30:35+00:00,44347591,44304768,0,DJac75,Joseph Sobran,
2006-04-21T20:14:05+00:00,49492499,49492269,0,DickClarkMises,Joseph Sobran,/* Current political philosophy */ ins space
2006-03-15T03:33:16+00:00,43835640,43835436,0,DJac75,Joseph Sobran,
2006-03-20T22:32:05+00:00,44721135,44166940,0,Charles Matthews,Kerry Kennedy,needs refs
2006-04-10T03:26:30+00:00,47747181,47745976,0,JDoorjam,Kevin MacDonald (evolutionary psychologist),Reverted edits by [[Special:Contributions/AO Charles|AO Charles]] ([[User talk:AO Charles|talk]]) to last version by JDoorjam
2006-03-15T23:49:53+00:00,43964424,43964158,0,Rogerman,Joseph Sobran,
2006-03-15T22:46:45+00:00,43956391,43946304,0,Jayjg,Kevin MacDonald (evolutionary psychologist),"""the"" not needed"
2006-02-27T14:17:42+00:00,41460804,41364241,0,Dallasmonkey,Kevin MacDonald (evolutionary psychologist),rmvg orig. res.
2006-02-12T09:24:14+00:00,39322117,38588008,0,Charles Matthews,Lev Gumilev,/* Works */ fmt
2006-03-19T17:23:01+00:00,44523445,39322117,0,SmackBot,Lev Gumilev,Pipe Nazi to Nazism &/or general fixes using [[Wikipedia:AutoWikiBrowser|AWB]]
2006-04-07T03:00:01+00:00,47350830,47350639,0,Jossi,Lew Rockwell,Reverted edits by [[Special:Contributions/68.35.247.18|68.35.247.18]] ([[User talk:68.35.247.18|talk]]) to last version by Bob A
2006-03-26T15:37:29+00:00,45571472,45003141,0,69.140.65.136,Lew Rockwell,/* Criticism */
2006-03-19T08:21:10+00:00,44477725,44470799,0,Rogerman,Lew Rockwell,
2006-03-20T20:42:51+00:00,44707049,44705484,0,DickClarkMises,LewRockwell.com,"rv - it doesn't matter what you've ""found"" it matters what a notable person has said in a verifiable source; please use the talk page to make arguments for your controversial edits"
2006-03-04T12:17:49+00:00,42187722,41944797,0,Crosbiesmith,LewRockwell.com,/* Criticism */ disambig Buckley
2006-04-15T04:59:58+00:00,48525858,48525740,0,Rogerman,LewRockwell.com,
2006-04-19T18:30:34+00:00,49162804,49144556,0,DickClarkMises,LewRockwell.com,"ins ""also"" for flow"
2006-03-02T20:18:56+00:00,41944797,41944551,0,DickClarkMises,LewRockwell.com,"/* Criticism */ sp—it's ""Ku Klux Klan"", not ""Klu Klux Klan""; the name is derived from the Greek ""Kuklos"" (""circle"")"
2006-04-05T15:18:00+00:00,47101679,47041439,0,DickClarkMises,LewRockwell.com,"/* Criticism */ ""who""-->""whom"""
2006-03-20T17:43:55+00:00,44686232,44685621,0,DickClarkMises,LewRockwell.com,"rv - you are refusing to look at the vote that was already taken on this issue. While [[WP:VIE|Voting is Evil]], this should be seen as some indication of consensus on this issue; refer to talk page"
2006-03-29T17:41:48+00:00,46035850,45605191,0,66.228.69.13,LewRockwell.com,
2006-03-26T20:45:03+00:00,45605191,45252939,0,Will Beback,LewRockwell.com,"/* Notable contributors */ trim list, per talk"
2004-12-18T13:32:46+00:00,17032949,0,0,Nat Krause,LewRockwell.com,
2006-04-15T22:13:30+00:00,48622998,48620775,0,Rogerman,LewRockwell.com,"RV...DickClarkMises..please stop POV pushing on Mises related issues...My presentation is fair, your's is sucking up to a boss..."
2006-04-12T18:33:33+00:00,48150723,48150640,0,DickClarkMises,LewRockwell.com,/* Notable contributors */ formatting
2006-03-22T22:58:57+00:00,45013000,45011765,0,DickClarkMises,LewRockwell.com,wikify; return collaboration on Sam Francis controversy to place under Criticism heading
2006-03-17T17:37:48+00:00,44236693,44235194,0,DickClarkMises,LewRockwell.com,/* Criticism */ add Kinsella criticism of Palmer's criticism
2006-04-18T00:41:59+00:00,48924428,48915846,0,Will Beback,LewRockwell.com,/* Criticism */ edit so that criticism not included in citation is more independent
2006-03-24T11:58:14+00:00,45252939,45192008,0,Will Beback,LewRockwell.com,/* Criticism */ claims -> notes -> says
2006-03-12T02:33:02+00:00,43377867,36344097,0,Pearle,Liberty Lobby,Changing {{tidy}} to {{cleanup-date|January 2006}}
2006-03-24T22:15:12+00:00,45324614,44724964,0,Hmains,List of Jewish American politicians,dbl levl cat
2006-02-26T15:54:56+00:00,41322981,41305799,0,PinchasC,List of Jewish American politicians,Reverted edits by [[Special:Contributions/66.188.94.96|66.188.94.96]] ([[User talk:66.188.94.96|talk]]) to last version by 71.0.17.31
2006-04-21T05:00:00+00:00,49400393,49173245,0,DJac75,Liberty Lobby,unproven assertion
2005-02-10T05:32:26+00:00,10279714,10121473,0,Grendelkhan,Ludwig von Mises,"/* External links */ minor formatting changes, use [[Template:lived]]"
2006-03-17T23:15:52+00:00,44276784,10279714,0,Nat Krause,Ludwig von Mises,add image and endmaterial from copyvio version
2006-04-23T04:11:00+00:00,49704052,49684881,0,Will Beback,Lyndon LaRouche,Reverted edits by [[Special:Contributions/152.163.100.10|152.163.100.10]] ([[User talk:152.163.100.10|talk]]) to last version by 216.137.107.211
2006-04-03T15:55:16+00:00,46765263,46765184,0,TimothyHorrigan,Lyndon LaRouche,/* 2004 */
2006-04-21T21:26:01+00:00,49502081,49207688,0,Molindo,Pat Buchanan,"/* Statements about Afro-Americans, the Civil War, segregation, etc */ ""Afro-Americans"" in quotes, as this is not considered a PC term today"
2006-04-02T10:50:09+00:00,46580719,46136512,0,OrphanBot,Pat Buchanan,Removing image with no source information.  Such images that are older than seven days may be deleted at any time.
2006-02-22T01:01:03+00:00,40645483,40645440,0,Checkerpaw,Pat Buchanan,/* Supporting views */
2006-04-05T20:34:55+00:00,47143945,47143867,0,Wes!,Pat Buchanan,/* Political views */
2006-03-04T12:51:25+00:00,42190189,42151905,0,Formeruser-82,Paul Fromm (white supremacist),
2006-03-28T03:22:00+00:00,45801823,45801383,0,Jersyko,Randal Pinkett,rvv
2006-02-16T03:28:26+00:00,39828405,39828359,0,24.31.26.198,Randal Pinkett,/* Also Hired On the Apprentice */
2006-02-18T01:24:58+00:00,40089210,40011698,0,132.241.245.49,Seward Collins,/* External links */
2006-03-10T15:30:26+00:00,43146540,40089210,0,151.197.59.126,Seward Collins,Softened POV in concluding paragraph.
2006-03-17T05:40:27+00:00,44170696,43396380,0,68.199.156.59,Riverdale Country School,/* Distinguished Riverdale Alumni */
2006-04-22T19:38:49+00:00,49637165,49445783,0,Mark Kim,Randal Pinkett,/* Education */
2006-02-23T19:08:18+00:00,40896376,40750328,0,Mfk91,Riverdale Country School,/* References */
2006-04-05T04:17:28+00:00,47038599,46996230,0,DickClarkMises,Stephan Kinsella,"tried to reword for accuracy, NPOV; needs work"
2006-03-22T21:17:17+00:00,44998925,44998108,0,DickClarkMises,Stephan Kinsella,rv - the problem with the edit is that you are making a factual assertion without citing a source;  please make your argument on the talk page
2006-01-31T16:29:35+00:00,37531354,35867669,0,Pinktulip,Stephan Kinsella,
2006-03-16T21:21:12+00:00,44108906,44107441,0,Poison sf,Stormfront (website),/* Extension of views */
2006-04-14T16:17:01+00:00,48434349,48434196,0,63.74.148.4,Stormfront (website),
2006-03-26T15:49:27+00:00,45572516,45572466,0,69.248.89.10,Stormfront (website),/* Controversies */
2006-04-10T12:22:17+00:00,47791981,47746094,0,Poison sf,Stormfront (website),"rv self-admitted member of POV pushing and disruptive group (see ""AeurianOrder"" [http://en.wikipedia.org/wiki/Wikipedia:Wikiquette_alerts#9_April_2006] and [[User:AO_Charles]])"
2006-04-07T13:40:09+00:00,47404121,47356613,0,Fbv65edel,Talk:Horace Mann School,/* My last revert */
2006-03-02T17:28:23+00:00,41923889,41904134,0,Daycd,Talk:Horace Mann School,/* Notability/Recognition */
2006-03-28T17:25:03+00:00,45877833,45877787,0,Daycd,Talk:Horace Mann School,/* Tennis in LA Times */
2006-02-25T02:24:09+00:00,41107796,41107643,0,Daycd,Talk:Horace Mann School,/* Additional evidence of HM being elite... */ Why you feel that the word 'elite' needs to be in the opening paragraph?
2006-02-23T02:08:42+00:00,40797801,40795746,0,Dystopos,Talk:Horace Mann School,/* Additional evidence of HM being elite... */
2006-03-28T01:21:15+00:00,45787387,45582240,0,Matilda,Talk:Horace Mann School,"/* ""Elite"" is a characterization and does not belong in the introduction */ suuport -  close RfC?"
2006-03-29T05:55:12+00:00,45971081,45971055,0,Sportsbang,Talk:Horace Mann School,/* Tennis in LA Times */
2006-03-20T06:26:26+00:00,44623179,44618624,0,DJac75,Talk:Joseph Sobran,
2006-01-09T01:47:34+00:00,34436952,34436470,0,DJac75,Talk:Joseph Sobran,/* 128.143.*.* Buffer */
2006-03-26T17:24:44+00:00,45582240,45582183,0,Daycd,Talk:Horace Mann School,/* Notability/Recognition */
2006-04-01T07:34:12+00:00,46428976,46422942,0,DJac75,Talk:Joseph Sobran,/* Check facts */
2006-04-06T03:17:20+00:00,47197146,47024646,0,Rogerman,Talk:Joseph Sobran,
2006-03-23T14:04:40+00:00,45104673,45104551,0,DJac75,Talk:Joseph Sobran,
2006-03-07T01:02:25+00:00,42568601,42566971,0,WHEELER,Talk:Joseph Sobran,/* Revolution within the form */ response to question
2006-04-07T07:06:47+00:00,47372108,47368294,0,Will Beback,Talk:Joseph Sobran,/* Check facts */ let's stick to the topic
2006-03-22T22:30:03+00:00,45009175,45008365,0,DickClarkMises,Talk:Joseph Sobran,/* Hard Ball */ reply to CaliforniaDreamlings
2006-03-18T22:09:44+00:00,44413394,44390912,0,Will Beback,Talk:Joseph Sobran,Shakespeare
2006-03-17T18:46:41+00:00,44245544,44245436,0,DickClarkMises,Talk:Joseph Sobran,/* NPOV */ add direct link to quoted section
2006-04-22T20:29:25+00:00,49644190,49593150,0,Will Beback,Talk:Joseph Sobran,/* Orthodox Catholic */ hard to handle
2006-03-30T00:14:36+00:00,46089454,45524281,0,Thornwalker,Talk:Joseph Sobran,/* Check facts */
2006-03-17T00:36:51+00:00,44136339,44135538,0,DickClarkMises,Talk:Lew Rockwell,/* Criticism of LRC and Lew Rockwell */ why vagueness is not encyclopedic and may be POV
2006-03-01T23:45:52+00:00,41822769,41818636,0,Will Beback,Talk:LewRockwell.com,the usual
2006-03-22T23:35:50+00:00,45017794,45017532,0,DickClarkMises,Talk:LewRockwell.com,/* Sam Francis */ sounds good
2006-04-24T17:01:21+00:00,49942004,49059919,0,Tizio,The Cinemann,merge
2006-03-23T23:47:44+00:00,45180982,45173431,0,Will Beback,Talk:LewRockwell.com,Other criticism
2006-03-24T18:02:00+00:00,45291879,45277580,0,Will Beback,Talk:LewRockwell.com,/* Contributors */ */?
2006-04-18T21:27:18+00:00,49059919,49011889,0,Wikster72,The Cinemann,"Before we merge or delete this page, i think it would be helpful to see what could potentially be considered unecyclopaedic.  So, I have eliminated what I think most would is such."
2006-02-19T01:37:00+00:00,40222476,40176100,0,PinchasC,User talk:12.218.144.90,
2006-03-13T23:50:24+00:00,43642209,43571789,0,Brian0918,User talk:152.163.100.195,Reverted edits by [[Special:Contributions/152.163.100.7|152.163.100.7]] ([[User talk:152.163.100.7|talk]]) to last version by Buchanan-Hermit
2006-02-20T23:24:09+00:00,40491349,40491045,0,205.188.116.8,User talk:205.188.116.131,
2006-03-05T12:41:54+00:00,42334721,17327704,0,Tawkerbot,User talk:203.213.77.138,blanking/categorizing stale IP talk page
2006-02-20T03:14:54+00:00,40373648,40215088,0,Tawkerbot,User talk:207.76.182.20,subst'ing per [[WP:SUBST]]
2004-12-28T20:29:31+00:00,17030593,8897104,0,Jayjg,User talk:68.5.18.103,
2006-03-12T01:28:07+00:00,43370184,43369920,0,Jossi,User talk:71.3.195.125,1st Warning
2006-03-22T02:20:16+00:00,44889492,43370184,0,Jossi,User talk:71.3.195.125,3RR warning
2006-03-02T20:11:41+00:00,41943759,41943612,0,Bastique,User talk:Bastique,
2006-04-02T08:11:08+00:00,46568640,44118391,0,Mahagaja,User talk:Bastique,Commons
2006-03-01T23:37:11+00:00,41821679,41734587,0,William M. Connolley,User talk:Bastique,Ray Bradley
2006-04-13T03:18:27+00:00,48219706,47292109,0,Morton devonshire,User talk:Bdj,/* Re: Your Message */
2006-03-01T20:15:25+00:00,41793807,41793411,0,Bdj,User talk:Bdj,/* Thanks */
2006-03-24T02:04:38+00:00,45199576,45194509,0,DJac75,User talk:Bdj,/* Vandalism */
2006-04-19T18:43:26+00:00,49164711,49162458,0,Bdj,User talk:Bdj,"/* Random Acts of Kindness Barnstar */ oh, wow!"
2006-03-05T03:44:10+00:00,42289166,42258009,0,EWS23,User talk:Bdj,thanks for your edit of the HP summary
2006-04-21T21:04:57+00:00,49499167,49497864,0,Bdj,User talk:Bdj,/* Just sayin' */ woo!
2006-03-22T22:55:35+00:00,45012552,44859494,0,DickClarkMises,User talk:CaliforniaDreamlings,"/* Another personal attack */ please, let's cooperate rather than endlessly revert"
2006-03-24T18:38:23+00:00,45296313,45041007,0,Rory096,User talk:DJac75,"already unblocked, point is moot"
2005-10-09T20:40:02+00:00,25151409,16435045,0,Sdedeo,User talk:DJac75,
2006-03-27T05:17:37+00:00,45664517,45524076,0,SuggestBot,User talk:DJac75,SuggestBot recommends these articles...
2006-03-17T16:46:44+00:00,44230362,44145976,0,Peter,User talk:DJac75,Rogerman report on [[WP:RFI]]
2006-04-21T01:37:17+00:00,49378805,49378773,0,DJac75,User talk:DJac75,/* Good work */
2006-04-20T04:08:05+00:00,49235745,49220278,0,Daycd,User talk:David D.,/* Edit count tools */
2006-04-11T22:12:25+00:00,48022094,48012925,0,Daycd,User talk:David D.,/* Please explain this */
2006-03-08T13:10:34+00:00,42803482,42802713,0,Simpsons contributor,User talk:David D.,/* Image reaction centre */
2006-04-07T18:37:09+00:00,47440525,47196548,0,"Can't sleep, clown will eat me",User talk:David D.,/* My RFA */ thank you
2006-03-18T20:34:01+00:00,44401327,43874499,0,Simpsons contributor,User talk:David D.,/* Image reaction centre */
2006-02-27T08:59:34+00:00,41439418,41437649,0,Arbustoo,User talk:David D.,/* My user page */
2006-03-13T08:42:05+00:00,43564341,43545166,0,Shyam,User talk:David D.,
2006-02-19T03:19:41+00:00,40233189,40101498,0,Arbustoo,User talk:David D.,/* LBU part two */
2006-03-17T17:53:29+00:00,44238500,44238459,0,DickClarkMises,User talk:DickClarkMises,/* Stop */ formatting
2006-03-23T20:43:53+00:00,45153442,45151905,0,DickClarkMises,User talk:DickClarkMises,/* 3RR on [[LewRockwell.com]] */ thanks
2006-03-29T13:46:36+00:00,46008834,45970862,0,Daycd,User talk:David D.,/* Athletics at Olympics */
2006-02-24T17:30:50+00:00,41038233,41038140,0,DickClarkMises,User talk:DickClarkMises,/* Joe Sobran */ minor addition
2006-03-06T22:47:04+00:00,42550321,41804967,0,William M. Connolley,User talk:DickClarkMises,3rr report
2006-03-01T21:39:25+00:00,41804967,41800368,0,DickClarkMises,User talk:DickClarkMises,/* Rockwell */ see [[Talk:Lew Rockwell]]
2006-03-16T02:28:13+00:00,43984925,43960969,0,DickClarkMises,User talk:DickClarkMises,/* Popular Opinion */ refer to wiki policy
2006-02-08T17:14:36+00:00,38785030,38650441,0,DickClarkMises,User talk:DickClarkMises,/* Get well */ thanks
2006-04-19T01:04:43+00:00,49089983,48919296,0,Sherman W.,User talk:DickClarkMises,
2006-04-21T00:50:42+00:00,49373027,49343316,0,Arbustoo,User talk:DickClarkMises,/* Thanks */
2006-04-06T19:40:58+00:00,47294884,47230687,0,DickClarkMises,User talk:DickClarkMises,/* 4.5 ' Canebrake */ no problem there
2006-03-13T22:07:30+00:00,43628398,43259485,0,DickClarkMises,User talk:DickClarkMises,/* Neutrality */ copy reply from other user's talk page
2006-03-21T06:41:19+00:00,44780046,44778093,0,DJac75,User talk:DickClarkMises,/* ACCUSATIONS II */
2006-03-04T02:54:31+00:00,42144951,42144926,0,CanadianCaesar,User talk:DonSiano,/* [[White race (history)]] */
2006-03-21T17:49:22+00:00,44834545,44830173,0,Tawker,User talk:DonSiano,tawkerbot2's error
2006-03-27T22:13:30+00:00,45763540,45296443,0,Shuo Xiang,User talk:Dystopos,It's here!!!
2006-04-12T01:03:02+00:00,48046653,45763540,0,Cmh,User talk:Dystopos,Neologisms
2006-03-09T21:08:39+00:00,43024947,42483472,0,Awrigh01,User talk:Fbv65edel,
2006-02-16T06:00:32+00:00,39843728,38869093,0,Gurubrahma,User talk:Dystopos,DYK
2006-01-27T18:36:46+00:00,36974221,36887506,0,Nickg331,User talk:Fbv65edel,
2006-04-08T23:09:01+00:00,47617026,47014624,0,Hermione1980,User talk:Fbv65edel,Re: userboxes
2006-03-06T14:38:41+00:00,42483472,41428172,0,Daycd,User talk:Fbv65edel,
2006-03-14T04:08:39+00:00,43675474,43024947,0,TenOfAllTrades,User talk:Fbv65edel,Reverted edits by [[Special:Contributions/Awrigh01|Awrigh01]] ([[User talk:Awrigh01|talk]]) to last version by Daycd
2006-04-01T19:49:21+00:00,46492025,46415654,0,JoshuaZ,User talk:Heah,/* Your RfA */  YAQ
2006-03-04T06:42:01+00:00,42166698,42021574,0,StrangerInParadise,User talk:Heah,/* New Userbox */
2006-04-09T04:42:15+00:00,47652863,40297104,0,AO Charles,User talk:Jacquerie27,AO
2006-02-07T05:15:27+00:00,38575720,38533261,0,Lord Voldemort,User talk:Jahiegel,NFL Draft
2006-02-19T16:52:21+00:00,40297104,40297065,0,80.138.177.147,User talk:Jacquerie27,cor
2006-04-11T01:57:29+00:00,47890224,47849427,0,Red Slash,User talk:Jahiegel,my rfa
2006-04-17T02:37:52+00:00,48787382,48785404,0,Adriatikus,User talk:Jmabel,/* Stavropoleos Church */  thanks
2006-03-13T14:14:02+00:00,43590254,43565701,0,Rick Norwood,User talk:Jmabel,Libertarians
2006-04-10T14:32:35+00:00,47804084,47755707,0,Jpgordon,User talk:Jpgordon,/* Are you an anti-semite? */
2006-03-21T04:16:32+00:00,44766023,44732182,0,Cberlet,User talk:Jpgordon,Visibility & attacks
2006-03-14T04:08:56+00:00,43675529,43024079,0,TenOfAllTrades,User talk:Nickg331,Reverted edits by [[Special:Contributions/Awrigh01|Awrigh01]] ([[User talk:Awrigh01|talk]]) to last version by AznNYCer212
2006-02-06T20:54:57+00:00,38509739,34789588,0,Monkeyman,User talk:Poison sf,RfC
2006-03-29T20:20:46+00:00,46057406,46056969,0,Tijuana Brass,User talk:Tijuana Brass,rm old archive notice
2006-03-27T15:17:17+00:00,45712443,45421818,0,Visorstuff,User talk:Tijuana Brass,"/* Joseph Smith, Jr. */"
2006-04-23T11:37:53+00:00,49739978,49739797,0,Jazzper,User talk:Tijuana Brass,/* What The F#@k!!!. */
2006-03-15T00:29:22+00:00,43812659,43811302,0,Tijuana Brass,User talk:Tijuana Brass,/* discussion still pending */
2006-03-08T21:30:44+00:00,42865437,40441938,0,PedanticallySpeaking,User talk:Weyes,
2006-03-27T20:45:55+00:00,45751463,45736801,0,Accurizer,User talk:Weyes,[[Grant Barbour]]
2006-04-19T01:21:33+00:00,49092240,49088090,0,Wikster72,User talk:Wikster72,/* hey */
2006-03-05T00:01:50+00:00,42263868,41557068,0,StrangerInParadise,User talk:Wikster72,/**Your userpage was briefly delisted by a rogue admin*/
2006-03-17T20:00:23+00:00,44254844,44252388,0,Guettarda,User talk:Will Beback/Revisions,Ethnic slurs
2006-03-02T04:03:59+00:00,41854059,41849071,0,Will Beback,User talk:Will Beback/Revisions,/* [[Lew Rockwell]] and [[LewRockwell.com]] */ criticism of a publishing decision
2006-03-12T16:16:56+00:00,43447117,43388726,0,Pathoschild,User talk:Will Beback/Revisions,/* [[User:ReSearcher]] */ re: result of the request for investigation
2006-03-20T06:18:28+00:00,44622494,44622448,0,DJac75,User talk:Will Beback/Revisions,/* Jac */
2006-02-22T03:36:57+00:00,40662893,40408389,0,MONGO,User talk:Wsiegmund,[[Mount Kilimanjaro]]
2006-04-11T16:34:52+00:00,47974839,47959527,0,Wsiegmund,User talk:Wsiegmund,/* Main page */ That is splendid news!
2006-04-10T16:39:02+00:00,47818624,47813976,0,Zoe,User:AO Charles,{{indefblock}}
2006-03-19T01:49:36+00:00,44439709,44115034,0,AO Charles,User:AO Charles,
2006-03-21T06:52:47+00:00,44781021,44754871,0,DJac75,User:DJac75,
2006-02-23T14:49:24+00:00,40864951,40781027,0,Jernejl,User:JDoorjam/Archive04,Jack Thompson headshot answer
2006-03-26T19:11:31+00:00,45593984,45180415,0,49TL,User:JDoorjam/Archive04,Esperanza Newsletter
2006-04-19T21:04:31+00:00,49181791,49021307,0,Kotepho,User:JDoorjam/Archive04,/* thanks for the note */
2006-03-08T03:44:04+00:00,42753936,42753744,0,JDoorjam,User:JDoorjam/Archive04,/* My vote in your RfA */ thanks!
2006-03-22T00:40:33+00:00,44876849,44874435,0,Kashk,User:JDoorjam/Archive04,/* InShaneee */
2006-04-17T05:08:48+00:00,48802791,48780501,0,Morganfitzp,User:JDoorjam/Archive04,Re: My signature and Queer People of Colour
2006-03-28T21:47:23+00:00,45910616,45902484,0,VJ Emsi,User:JDoorjam/Archive04,Substing.
2006-03-04T17:51:59+00:00,42218074,42217941,0,JDoorjam,User:JDoorjam/Archive04,/* Britney Spears review */ addendum
2006-03-27T12:41:48+00:00,45697765,45696850,0,Ruud Koot,Wikipedia:Administrators' noticeboard/Edit warring,/* [[User:Khashayar Karimi]] */ 24
2006-03-24T14:24:54+00:00,45266123,45265546,0,Ruud Koot,Wikipedia:Administrators' noticeboard/Edit warring,/* [[User:Netscott]] */ reply
2006-03-21T11:34:30+00:00,44802360,44802314,0,Netscott,Wikipedia:Administrators' noticeboard/Edit warring,/* [[User:Rgulerdem]] */ grammar
2006-03-18T17:32:40+00:00,44378870,44377542,0,William M. Connolley,Wikipedia:Administrators' noticeboard/Edit warring,/* [[User:88.106.232.89]] [[User:Parkinsons]] [[User:Japanese_historian]] */
2006-03-26T12:55:58+00:00,45558398,45558324,0,Germen,Wikipedia:Administrators' noticeboard/Edit warring,/* [[User:Swatjester]] */
2006-03-21T19:53:21+00:00,44844884,44844772,0,Ruud Koot,Wikipedia:Administrators' noticeboard/Edit warring,/* [[User:Mccready]] */ typo
2005-07-28T02:19:14+00:00,19756321,18249742,0,Uncle.bungle,Abraham Foxman,Added a more suitable image
2005-10-08T06:54:19+00:00,25040860,23722601,0,Vulturell,Abraham Foxman,
2005-01-06T16:47:06+00:00,9796127,9151824,0,Kent Wang,Amiri Baraka,punc
2005-01-17T18:56:44+00:00,11580760,9436154,0,Woohookitty,Abraham Foxman,disam
2005-07-25T22:36:28+00:00,19603751,19603680,0,128.135.44.97,Amiri Baraka,reverted back after viewing discussion
2005-05-17T06:42:36+00:00,13958777,13822613,0,209.239.3.13,Antisemitism,/* See also */ m
2005-12-13T11:41:07+00:00,31179713,30563492,0,80.230.146.219,Amiri Baraka,
2005-11-23T11:16:18+00:00,29049733,25040860,0,AnIco,Abraham Foxman,spelling
2006-02-19T18:10:55+00:00,40305370,40184738,0,132.235.45.58,Amiri Baraka,/* External links */
2005-07-06T10:03:51+00:00,18249742,18245286,0,Mel Etitis,Abraham Foxman,Reverted edits by [[Special:Contributions/Molloy|Molloy]] to last version by Jpgordon
2005-09-19T03:40:02+00:00,23501489,23498314,0,AxelBoldt,Antisemitism,"spelling of ""occurred"""
2005-12-27T21:03:37+00:00,32912959,32364175,0,NekoDaemon,Amiri Baraka,[[Cat#Communication|Nyaa]]! [[Template talk:Categoryredirect|Categoryredirect]]: [[Category:American Communists]] → [[Category:American communists]]
2005-05-15T08:26:33+00:00,15783873,13732507,0,67.86.183.166,Abraham Foxman,/* External links */
2005-08-19T04:16:13+00:00,21340209,21339953,0,SlimVirgin,Antisemitism,Reverted edits by [[Special:Contributions/194.108.186.13|194.108.186.13]] to last version by 207.162.211.98
2006-03-09T13:18:40+00:00,42964195,42964072,0,Alhutch,Antisemitism,Reverted edits by [[Special:Contributions/193.60.223.228|193.60.223.228]] ([[User talk:193.60.223.228|talk]]) to last version by Str1977
2006-03-13T08:26:44+00:00,43563303,43563007,0,MPerel,Antisemitism,/* Passion plays */ commas
2005-10-13T12:48:03+00:00,25429384,25429322,0,Slrubenstein,Antisemitism,Reverted edits by [[Special:Contributions/Street Scholar|Street Scholar]] to last version by Humus sapiens
2006-04-03T04:05:13+00:00,46692757,46327598,0,24.215.188.53,Amiri Baraka,
2005-02-24T03:08:39+00:00,11724736,10530627,0,Everyking,Arun Manilal Gandhi,/* Family */
2005-11-17T11:08:15+00:00,28584588,27539955,0,Mr Tan,Arun Manilal Gandhi,/* Principles */
2005-05-20T10:19:21+00:00,17031470,13968106,0,Megan1967,Arun Manilal Gandhi,dab
2005-03-31T15:24:28+00:00,12592026,11724847,0,Quadell,Arun Manilal Gandhi,/* The Present */ I removed and rewrote copyvios. This article is clean.
2005-08-17T04:36:52+00:00,21194685,21191032,0,68.40.183.211,Arun Manilal Gandhi,added less controversial photo
2005-07-07T08:46:05+00:00,18316129,18135698,0,Aesculapius75,Arun Manilal Gandhi,fixing picture description
2006-01-05T21:52:16+00:00,34024995,28756069,0,PaulHanson,Arun Manilal Gandhi,category
2004-12-14T19:15:52+00:00,9779509,8431223,0,JTilly,Bill Weld,
2005-06-10T07:50:49+00:00,15678850,14967636,0,Vegaswikian,Collegiate School (New York City),cats and heading and list and links
2005-09-29T13:27:48+00:00,24317847,23081440,0,Jpbowen,Bill Weld,Minor typo changes
2004-12-22T01:47:34+00:00,10107403,8699596,0,66.65.112.107,Collegiate School (New York City),
2005-12-05T17:07:25+00:00,30236201,29808213,0,Sylvain1972,Bill Weld,/* Weld Family */  still is
2005-11-19T15:38:08+00:00,28756069,28584588,0,Bhadani,Arun Manilal Gandhi,
2005-08-14T00:56:41+00:00,20959964,20952447,0,Sophitus,Collegiate School (New York City),"/* Noted alumni */ notable, not noted"
2005-07-21T17:38:44+00:00,19313150,19159655,0,Shoaler,Collegiate School (New York City),disambiguate [[Columbia]]
2005-12-26T06:59:39+00:00,32746115,32508883,0,69.112.3.48,Collegiate School (New York City),"changed ""continuous operation"" to ""continuous existence"" to reflect source"
2005-10-21T14:00:23+00:00,26095023,26094583,0,66.9.215.145,Collegiate School (New York City),
2006-01-16T01:09:52+00:00,35338430,35029764,0,68.161.114.224,Dalton School,/* Notable alumni of the Dalton School */
2005-04-14T00:20:06+00:00,12932717,12277713,0,128.12.94.107,Collegiate School (New York City),
2005-06-13T11:05:36+00:00,16662509,15110369,0,Sophitus,Dalton School,
2005-03-10T03:26:12+00:00,12033549,10978716,0,Viajero,Eric Margolis (journalist),copyedit
2004-12-29T20:45:06+00:00,10552187,8929209,0,Optimusnauta,Dalton School,
2004-12-18T10:51:06+00:00,9684145,8553512,0,JASpencer,Eric Margolis (journalist),
2004-12-12T16:39:41+00:00,10259075,8366054,0,Jonathunder,Gary North (economist),simplify link
2005-05-05T14:00:13+00:00,13840007,13266066,0,129.215.13.83,Dalton School,/* History */
2004-12-25T06:35:05+00:00,8929209,8802091,0,Optimusnauta,Dalton School,
2006-02-24T05:22:07+00:00,40973683,40896742,0,162.84.230.58,Collegiate School (New York City),
2006-03-20T23:55:17+00:00,44732521,43677398,0,Gandalf1491,Eric Margolis (journalist),
2005-12-08T19:11:44+00:00,30620551,30529917,0,63.80.167.195,Dalton School,/* Notable alumni of the Dalton School */
2005-06-09T17:26:46+00:00,15862672,14936330,0,GCarty,Eric Margolis (journalist),better disambiguation
2005-11-06T00:46:50+00:00,27489103,27485677,0,Srl,Gary North (economist),link
2005-07-09T15:33:39+00:00,18468920,15910317,0,4.252.195.182,Gary North (economist),
2005-03-24T13:51:06+00:00,14976868,11468887,0,Flex,Gary North (economist),Reverted misspelling by Wikix. Van Til capitalized his V.
2005-10-09T21:39:06+00:00,25152519,20595212,0,Btm,George David Birkhoff,wikified avoiding disambiguation page
2004-12-13T07:56:54+00:00,11781801,8389390,0,Kingturtle,Harkness table,wiki
2004-12-17T23:31:34+00:00,9892738,8536378,0,Icairns,George David Birkhoff,categ Mathematicians -> American mathematicians
2006-02-09T12:30:03+00:00,38908416,38906072,0,202.36.179.65,George David Birkhoff,/* External link */ Add Also see
2006-02-10T14:11:21+00:00,39068186,37444490,0,Alansohn,Harkness table,copyedit and dewikify
2006-01-17T20:23:37+00:00,35581531,34980863,0,Cynthia B.,Henry Winkler,
2006-01-31T01:27:55+00:00,37444490,37444465,0,65.29.38.128,Harkness table,
2005-10-31T13:08:45+00:00,26972359,25932766,0,PDH,Henry Winkler,rm no source image
2006-03-05T19:07:09+00:00,42372656,41375357,0,12.39.80.98,Harkness table,
2006-02-26T22:52:34+00:00,41375357,40462345,0,Quodfui,Harkness table,
2005-05-18T00:52:22+00:00,14429114,13859959,0,Angie Y.,Henry Winkler,
2005-05-04T02:31:57+00:00,14272648,13203294,0,152.3.67.241,Horace Mann School,
2006-01-27T02:12:26+00:00,36882820,36878811,0,24.199.88.192,Horace Mann School,/* Academics */
2005-10-05T22:04:11+00:00,24845348,24507105,0,66.65.24.4,Horace Mann School,/* School Newspaper */
2005-05-26T17:47:35+00:00,15089595,14272648,0,207.237.91.78,Horace Mann School,
2006-01-12T20:38:13+00:00,34927913,34523711,0,Tedernst,Horace Mann School,disambiguation link repair ([[Wikipedia:Disambiguation pages with links|You can help!]])
2005-06-13T00:38:44+00:00,16491942,15091502,0,Asparagirl,Horace Mann School,"re-organized the famous graduates section, added names and dates"
2005-07-27T18:51:11+00:00,19731460,19333430,0,Splintercellguy,Horace Mann School,Link fix
2005-08-14T19:36:52+00:00,21012563,20986595,0,207.237.91.78,Horace Mann School,/* Divisions */
2005-02-25T12:35:56+00:00,11608965,10560023,0,Ahoerstemeier,Horace Mann School,/* History */ typo
2005-01-08T23:32:44+00:00,10107921,9213519,0,68.174.170.180,Horace Mann School,
2005-07-12T16:54:55+00:00,18682814,18011468,0,12.15.224.200,Horace Mann School,/* Famous Graduates */
2005-02-09T21:28:30+00:00,10560023,10107921,0,Mpearl,Horace Mann School,"/* The ""Ivy League""  */  -- improve explanation of ""ivy"" term"
2005-12-24T23:19:36+00:00,32637278,32632223,0,Theblacklarl,Horace Mann School,Crosslist HM Cum Laude Society with HM College Matriculation.  See HM Mannikin for proof.
2006-01-22T01:17:59+00:00,36156418,36113554,0,67.81.19.102,Horace Mann School,/* Recognition */
2005-09-07T08:07:09+00:00,22759125,21012563,0,Stumps,Horace Mann School,/* Famous Graduates */  + Kleinzahler
2006-01-17T18:04:32+00:00,35564137,35442284,0,Gaius Cornelius,Horace Mann School,Common typographical error 'similiar'. See [[WP:LCM]].
2005-12-03T12:59:03+00:00,30011900,29990845,0,Stumps,Horace Mann School,revert to last version by Thivierr
2004-12-30T07:54:19+00:00,9213519,8944965,0,CamLewis,Horace Mann School,"/* The ""Ivy League"" */     When you have ""quotes,"" you should put a comma immediately following inside them."
2006-04-19T04:44:22+00:00,49117555,49117031,0,64.12.116.9,Horace Mann School,/* Sports */
2006-03-15T19:42:38+00:00,43933217,43799361,0,64.12.116.9,Horace Mann School,/* Athletics */ THE SQUASH TEAM IS A BOYS TEAM STOP CHANGING IT!!!
2005-10-12T19:33:33+00:00,25374311,25319485,0,160.39.226.232,Horace Mann School,/* External links */
2005-03-31T18:18:51+00:00,12950489,11729555,0,Mpearl,Horace Mann School,/* Divisions */
2005-12-10T19:58:40+00:00,30849668,30845027,0,W7KyzmJt,Horace Mann School,added admissions section
2006-02-26T03:25:52+00:00,41261203,41261101,0,69.124.31.220,Horace Mann School,
2006-03-27T02:51:16+00:00,45648891,45648689,0,67.82.122.48,Horace Mann School,/* Arts */
2005-11-18T05:49:59+00:00,28650179,28359539,0,User2004,Horace Mann School,restore undescribed deletion
2005-11-11T01:23:19+00:00,27979883,27979617,0,68.198.174.90,Horace Mann School,/* Famous Graduates */
2005-04-30T18:10:42+00:00,13105160,13038809,0,172.134.224.128,Horace Mann School,/* Divisions */
2005-09-18T01:37:42+00:00,23428309,23428238,0,207.237.91.78,Horace Mann School,/* Student Government */
2005-12-14T20:19:32+00:00,31368049,31367741,0,Izehar,Horace Mann School,Reverted edits by [[Special:Contributions/63.80.167.195|63.80.167.195]] ([[User talk:63.80.167.195|talk]]) to last version by Izehar
2006-01-31T23:00:21+00:00,37588039,37516728,0,Hoonesco,Horace Mann School,"link to R. Inslee Clark, Jr."
2005-03-03T17:19:10+00:00,13142750,10735500,0,Astronautics~enwiki,Institute for Historical Review,NPOV
2005-05-15T12:31:24+00:00,15959171,13737051,0,Modemac,Institute for Historical Review,
2005-08-24T12:39:56+00:00,21722870,21722640,0,Mloclam901,Institute for Historical Review,spelling
2005-12-27T05:35:03+00:00,32845366,32844069,0,Theblacklarl,Horace Mann School,Chris S. Not a Notable Alumni
2005-05-05T00:36:19+00:00,13737051,13243023,0,81.196.170.72,Institute for Historical Review,
2005-02-01T13:57:45+00:00,10735500,9857908,0,158.227.68.133,Institute for Historical Review,+ es:
2004-12-21T20:09:53+00:00,9857908,8687507,0,203.221.110.57,Institute for Historical Review,Follows a CLAIM of critics up by a blanket and very biased STATEMENT... a small edit makes it more NPOV
2005-11-11T04:15:02+00:00,27993167,25172788,0,Kelisi,Institute for Historical Review,/* Links to Muslim anti-Semites */ umlaut
2005-07-20T01:37:04+00:00,19195081,16419605,0,Eric Shalov,James R. Schlesinger,/* Post-Defense Dept. Activities */ +cat:Alfalfa Club members
2004-12-06T13:10:55+00:00,10127531,8180112,0,Everyking,James R. Schlesinger,Reverted edits by [[Special:Contributions/69.198.82.13|69.198.82.13]] to last version by Jerryseinfeld
2006-01-06T18:43:39+00:00,34139647,34138131,0,Censorwolf,James R. Schlesinger,/* Post-Defense Dept. Activities */ fixed spelling
2005-11-22T01:33:01+00:00,28949164,24667127,0,GoldRingChip,James R. Schlesinger,
2005-08-05T22:27:54+00:00,20368809,20091906,0,Jack Cox,James R. Schlesinger,/* Post-Defense Dept. Activities */
2006-02-21T19:36:03+00:00,40603122,38484181,0,GoldRingChip,James R. Schlesinger,
2005-07-13T11:24:50+00:00,18737725,17014296,0,Nirvana2013,Joseph Sobran,Add photo
2005-04-28T03:20:11+00:00,13958150,12914006,0,Spangineer,Joseph Sobran,Stub-sorting. [[Wikipedia:WikiProject Stub sorting|You can help!]]
2004-12-18T10:52:54+00:00,11842567,8553555,0,JASpencer,Joseph Sobran,
2005-05-20T03:16:45+00:00,17014296,13958150,0,Infocidal,Joseph Sobran,
2005-12-02T15:07:43+00:00,29914964,29844126,0,128.143.193.7,Joseph Sobran,/* External links */  restored link to newsletter archive -- the newsletter isn't included in official site.  Restored article archive for convenience though part of official site.  Removed dead link.
2005-12-16T20:37:10+00:00,31649888,29914964,0,66.208.37.3,Joseph Sobran,
2005-11-27T09:22:26+00:00,29365600,29361199,0,Klonimus,Joseph Sobran,wikilinking
2005-10-27T09:53:59+00:00,26606886,26569500,0,Benl47,Joseph Sobran,typo
2005-04-10T02:36:59+00:00,12914006,12103398,0,DLJessup,Joseph Sobran,succession table:  candidacy date links
2005-09-12T19:32:59+00:00,23115833,23074867,0,128.143.193.174,Joseph Sobran,"deleted extraneous comma, added ""magazine"" after ""National Review."""
2005-01-18T01:57:11+00:00,16749816,9446859,0,Jonathunder,Kerry Kennedy,fix double redirect
2005-08-09T19:46:18+00:00,20640669,16749816,0,66.7.17.207,Kerry Kennedy,
2006-02-15T22:21:01+00:00,39792157,39791956,0,Pete.Hurd,Kevin MacDonald (evolutionary psychologist),fix redlink to [[group selection]]
2005-11-07T02:16:20+00:00,27581578,27581008,0,User2004,Kevin MacDonald (evolutionary psychologist),/* Books and monographs */ fix link
2005-09-09T07:29:21+00:00,22895881,22895519,0,Nectarflowed,Kevin MacDonald (evolutionary psychologist),copyedit
2005-10-12T04:23:11+00:00,25332030,25331054,0,140.247.243.228,Kevin MacDonald (evolutionary psychologist),
2005-04-16T06:23:43+00:00,13979523,12379379,0,217.132.146.214,Kevin MacDonald (evolutionary psychologist),Do we really need to know that MacDonald likes Tennis & Crossword puzzles?
2006-02-07T01:41:32+00:00,38551173,37532763,0,Adam Holland,Kevin MacDonald (evolutionary psychologist),/* Libel case */
2005-11-09T13:13:32+00:00,27817805,27562722,0,Bluebot,Lev Gumilev,Robot [[Wikipedia:Subst|subst'ing]].
2005-04-03T18:17:17+00:00,13353824,11841323,0,Harry491,Lew Rockwell,removed rockwell picture until someone shows that it's legal
2005-02-16T18:52:51+00:00,11591892,10329982,0,PaulHanson,Lew Rockwell,
2005-11-03T06:17:12+00:00,27230959,27228812,0,User2004,Lew Rockwell,Reverted edits by [[Special:Contributions/Theblacklarl|Theblacklarl]] to last version by Willmcw
2005-06-19T18:21:31+00:00,16136806,15453836,0,J'raxis,Lew Rockwell,/* External link */ Plural.
2006-01-23T10:58:21+00:00,36344097,35382242,0,Mattflaschen,Liberty Lobby,remove unnecessary weasel words
2004-12-04T19:33:16+00:00,15709802,8121675,0,Meelar,Liberty Lobby,
2005-10-07T17:09:18+00:00,24988903,19279234,0,RJII,Liberty Lobby,"noting that IHR doesnt say that holocaust didnt happen, but publish books that claim it was not as severe as is normally claimed"
2006-03-20T22:59:57+00:00,44724964,44724532,0,213.173.232.178,List of Jewish American politicians,/* Mayors */
2005-12-05T23:03:18+00:00,30272218,30015085,0,68.193.244.164,List of Jewish American politicians,/* Presidential candidates */
2006-04-20T08:13:26+00:00,49255463,49254341,0,4.240.198.210,List of Jewish American politicians,"Fixed alphabetization; added commie credentials for Norm, who will take whatever side seems most destructive to America at the time"
2006-04-09T02:06:21+00:00,47636934,47612512,0,24.140.13.122,Ludwig von Mises,
2006-02-12T05:03:30+00:00,39301605,38436699,0,71.224.204.90,List of Jewish American politicians,/* Ambassadors */
2005-01-13T22:22:02+00:00,9361570,9343823,0,Herschelkrustofsky,Lyndon LaRouche,"/* Criminal conviction */restore modified version of Brainin quote, with cite"
2005-03-11T04:36:57+00:00,11178910,11013582,0,LizardWizard,Lyndon LaRouche,"/* 1969&#8212;1973  NCLC, and ""Operation Mop-up"" */  Dele duplicated text"
2005-02-19T06:51:49+00:00,10484049,10418472,0,User2004,Lyndon LaRouche,revert to agreed-upon text
2006-02-06T21:39:45+00:00,38516147,38503856,0,206.252.74.49,Pat Buchanan,
2005-03-31T15:41:35+00:00,11762823,11725304,0,139.102.23.89,Pat Buchanan,
2006-03-31T13:21:37+00:00,46314865,46310394,0,TimLambert,Lyndon LaRouche,rv - there is no evidence for this
2005-09-09T18:12:06+00:00,22923119,22922990,0,Babbage,Lyndon LaRouche,"/* 1969&#8211;1973  NCLC, and ""Operation Mop-up"" */ make quote formatting consistent"
2005-02-11T01:11:00+00:00,10185422,10146627,0,KrJnX,Pat Buchanan,Readded controversy section
2006-02-27T02:43:26+00:00,41405308,41389747,0,Descendall,Pat Buchanan,
2006-01-29T07:31:39+00:00,37186488,37019304,0,65.247.226.95,Pat Buchanan,"/* Statements about Israel, Hitler, the Holocaust, and Germans Accused of Nazi-Era War Crimes */"
2004-12-20T02:19:38+00:00,9625466,8630164,0,24.211.27.187,Ludwig von Mises,/* External links */
2005-04-07T08:14:53+00:00,12089393,11988662,0,Klonimus,Pat Buchanan,/* Holocaust denial and Defense of Ivan Demjanjuk */
2005-11-02T01:58:46+00:00,27126032,27075528,0,67.100.52.97,Pat Buchanan,/* Early life */
2005-02-04T20:54:23+00:00,10050889,9947154,0,24.180.54.181,Pat Buchanan,
2005-12-04T01:58:50+00:00,30068476,30068328,0,24.224.154.37,Paul Fromm (white supremacist),/* Towards the mainstream */
2005-05-13T23:41:50+00:00,13817832,13673987,0,Rast,Pat Buchanan,"/* Political views */  ""right wing"" is not a complete description, but its fairly accurrate. ""opposes current American foreign policy in general"" seems an impossibly broad description."
2005-01-27T02:49:05+00:00,10627522,9692301,0,70.50.122.9,Paul Fromm (white supremacist),
2006-02-20T06:58:01+00:00,40397240,40396527,0,Suntzu1963,Riverdale Country School,addition of academics section
2005-10-27T20:49:27+00:00,26647400,0,0,68.199.152.191,Riverdale Country School,
2005-04-02T04:57:22+00:00,16176634,11785127,0,208.187.9.33,Seward Collins,
2005-12-10T20:51:36+00:00,30854664,30623907,0,Timrollpickering,Stephan Kinsella,Cats
2006-04-13T06:16:37+00:00,48235908,47653503,0,Dreadstar,Seward Collins,spiritual medium link fix
2005-12-16T22:14:50+00:00,31660504,31486582,0,151.197.52.235,Seward Collins,Removed POV at beginning of new conclusion.
2005-04-20T17:08:01+00:00,19190815,19190814,0,Nskinsella,Stephan Kinsella,"Removed illiterate comment about the article being ""copyrighted"""
2005-09-23T15:31:21+00:00,23837000,23810911,0,Phil Boswell,Stephan Kinsella,moving notice to talk page
2005-08-19T19:17:17+00:00,21382400,21178416,0,201.1.124.85,Stormfront (website),/* Extension of views */
2005-02-27T09:19:32+00:00,10977441,10610732,0,24.124.58.35,Stormfront (website),/* External links */
2005-03-22T06:14:10+00:00,11929044,11386072,0,Astronautics~enwiki,Stormfront (website),rm self-reference; style
2005-03-12T10:05:33+00:00,11386072,11054108,0,66.58.191.28,Stormfront (website),
2005-04-26T11:50:50+00:00,12913339,12834650,0,FirstPrinciples,Stormfront (website),wording
2006-01-12T21:24:06+00:00,34934253,34934230,0,Grazon,Stormfront (website),/* See also */
2005-11-30T00:18:28+00:00,29642560,29630359,0,207.200.163.156,Stormfront (website),
2005-04-14T19:16:56+00:00,12834650,12309932,0,Trödel,Stormfront (website),fixed wikilink and disamb
2005-10-02T21:48:42+00:00,24594308,24594086,0,Klonimus,Talk:Joseph Sobran,/* 128.143.*.* Buffer */
2005-08-26T06:16:54+00:00,21863621,0,0,66.248.121.27,Talk:Joseph Sobran,
2005-12-02T17:02:21+00:00,29925322,29915578,0,User2004,Talk:Joseph Sobran,/* 128.143.*.* Buffer */ assume good faith
2005-11-30T22:47:40+00:00,29739984,29704593,0,User2004,Talk:Lew Rockwell,/* Multiple Links to Same Source? */ oh
2006-01-10T21:28:46+00:00,34662197,34559110,0,Magister Mathematicae,User talk:152.163.100.195,[[WP:AWB|AWB Assisted]] substing some unsubsted templates
2005-12-22T11:46:18+00:00,32350374,32350279,0,IainP,User talk:152.163.100.195,replaced removed text from log
2005-06-10T17:23:05+00:00,16794937,14984591,0,Aecis,User talk:152.163.100.195,Revert childish vandalism
2005-03-31T06:42:32+00:00,17327704,11714564,0,Nibble~enwiki,User talk:203.213.77.138,
2006-03-13T04:18:50+00:00,43538773,43537812,0,203.213.77.138,User talk:203.213.77.138,/* Jonathan Sarfati/Dispute */
2004-10-27T00:52:02+00:00,9901412,0,0,Fabiform,User talk:205.188.116.131,{{test}} ~~~~~.
2005-07-21T01:50:26+00:00,19271846,19271833,0,AnnaAniston,User talk:205.188.116.131,Vandalism to [[Feminism]]
2005-12-14T21:33:48+00:00,31377589,29757571,0,ESkog,User talk:205.188.116.131,Your post on WP:RD/MISC
2004-12-03T09:50:04+00:00,12893458,8076529,0,WegianWarrior,User talk:Bastique,Thanks for helping out on Remington M1867
2006-02-17T23:10:06+00:00,40073487,39910845,0,Feezo,User talk:Bastique,
2005-06-20T02:53:42+00:00,15592057,15475807,0,Falphin,User talk:Bastique,/* [[Wikipedia:U.S. Southern wikipedians' notice board]] */
2005-07-24T18:34:53+00:00,19520115,19398659,0,Picapica,User talk:Bastique,
2005-10-17T15:02:46+00:00,25743687,25474847,0,Khaosworks,User talk:Bdj,/* Serenity in 2000 words or less */
2006-01-07T02:19:55+00:00,34192946,34163107,0,Vaoverland,User talk:Bastique,[[Fisher Island]] I thought that was a good edit/improvement to the article
2005-05-29T10:35:09+00:00,14459611,14398378,0,Dalta~enwiki,User talk:Bastique,/* A wee favour */
2005-04-01T18:47:51+00:00,17341295,0,0,Mel Etitis,User talk:Bdj,Belated welcome
2005-12-14T12:33:25+00:00,31319715,31319692,0,Geni,User talk:Bdj,/* Three revert rule */ correct length
2005-08-19T19:20:05+00:00,21382563,18942567,0,Rangerdude,User talk:Bdj,
2006-03-01T09:27:11+00:00,41728538,41701353,0,Urthogie,User talk:Bdj,/* vote to keep */ reply
2004-04-19T18:48:34+00:00,16435045,0,0,Jrdioko,User talk:DJac75,Welcome DJac75!
2005-10-10T13:56:10+00:00,25202955,25119680,0,138.253.244.70,User talk:David D.,EADS
2006-02-17T04:54:40+00:00,39973171,39970430,0,Cyde,User talk:David D.,Jason Gastrich
2005-10-17T16:16:44+00:00,25748284,25064418,0,Rogue 9,User talk:DickClarkMises,
2005-07-26T00:19:58+00:00,19609469,19556821,0,Rangerdude,User talk:DickClarkMises,
2005-04-19T08:34:37+00:00,17323519,12512325,0,Burgundavia,User talk:DickClarkMises,
2005-12-28T23:43:17+00:00,33054791,32505210,0,User2004,User talk:DickClarkMises,Happy New Year
2005-09-14T00:17:25+00:00,23192361,23186583,0,Kizzle,User talk:DickClarkMises,/* Sorry about Cindy Sheehand */
2006-01-26T21:18:41+00:00,36844011,36843698,0,Bengalski,User talk:DickClarkMises,/* Ralph Raico */
2006-01-13T18:18:52+00:00,35042282,33054791,0,Rlevse,User talk:DickClarkMises,
2005-08-19T18:46:05+00:00,21380656,19609469,0,Rangerdude,User talk:DickClarkMises,
2005-09-22T01:42:36+00:00,23718511,23192361,0,Jnc,User talk:DickClarkMises,/* Wikistalking guideline */ Avoid redir being del'd
2006-01-20T02:42:35+00:00,35899995,35042282,0,Pavel Vozenilek,User talk:DickClarkMises,Stupid category
2005-12-15T18:52:45+00:00,31499840,31392956,0,User2004,User talk:DickClarkMises,Theblackarl
2005-04-08T20:24:30+00:00,12512325,12050357,0,User2004,User talk:DickClarkMises,/* Image copyrights */ specific images
2006-02-06T17:13:34+00:00,38482453,38481839,0,DonSiano,User talk:DonSiano,"remove cat, etc"
2005-10-06T20:14:27+00:00,24916969,17310339,0,Michael Hardy,User talk:DonSiano,
2005-03-24T15:29:29+00:00,17310339,0,0,Mel Etitis,User talk:DonSiano,Welcome
2005-07-13T08:01:58+00:00,18730850,16830739,0,Knowledge Seeker,User talk:Dystopos,Did you know?
2005-06-26T21:01:12+00:00,16830739,15878943,0,RussBlau,User talk:Dystopos,Nickajack response
2005-04-30T20:37:10+00:00,13876112,13045840,0,R3m0t,User talk:Dystopos,Sign your posts
2005-05-18T09:38:15+00:00,15498388,13876112,0,Radiant!,User talk:Dystopos,[[Wikipedia:Deletion policy/Area codes]]
2005-10-16T23:48:29+00:00,25695787,0,0,Meelar,User talk:Fbv65edel,
2005-05-24T15:36:43+00:00,14321220,14164857,0,Peter G Werner,User talk:Heah,/* Psilocybe */
2006-02-17T04:01:45+00:00,39967813,39803643,0,BD2412,User talk:Heah,[[WP:AWB|AWB assisted]] [[WP:AN]] check request
2005-12-22T18:29:42+00:00,32385146,32198657,0,CDN99,User talk:Heah,/* Herbal & fungal categories */  cfd
2005-03-29T20:16:52+00:00,16098009,11659826,0,Bogusstory,User talk:Jacquerie27,
2005-02-03T19:23:49+00:00,11659826,9916915,0,Jacquerie27,User talk:Jacquerie27,SV re VS.
2006-01-25T23:46:27+00:00,36714403,33182330,0,Kiwidude,User talk:Jahiegel,
2005-04-13T12:03:34+00:00,12271056,12250345,0,Kierano,User talk:Jmabel,/* Zulu article introduction */
2006-03-04T20:29:11+00:00,42235569,42229036,0,Orioane,User talk:Jmabel,/* Satu Mare */
2005-07-28T16:58:02+00:00,19794202,19770490,0,Rl,User talk:Jmabel,/* [[Napoleon I of France]] */
2005-09-02T20:32:08+00:00,22422703,22410585,0,K.Nevelsteen,User talk:Jmabel,/* Promotional photo */
2005-08-04T04:53:41+00:00,20241771,20224263,0,JCarriker,User talk:Jmabel,HELP
2005-06-23T03:06:23+00:00,15700782,15665612,0,John K,User talk:Jmabel,left-right politics
2005-07-29T13:38:50+00:00,19852899,19832529,0,Mothperson,User talk:Jpgordon,"""visual effects"""
2006-02-09T23:17:05+00:00,38985526,38952230,0,ElectricRay,User talk:Jpgordon,/* Your block of Mr. Stark */ a final rant...
2004-12-23T19:40:29+00:00,8786600,8753115,0,Fvw,User talk:Jpgordon,rv personal attack
2004-12-21T01:51:44+00:00,8753056,8660123,0,Endersdouble,User talk:Jpgordon,
2006-01-11T22:36:40+00:00,34813895,34697973,0,Flcelloguy,User talk:Jpgordon,Reply (Re: Random request)
2005-04-22T16:39:29+00:00,12756905,12667171,0,Hadal,User talk:Jpgordon,Reverted edits by [[Special:Contributions/69.217.126.25|69.217.126.25]] to last version by Jpgordon
2006-02-01T02:39:49+00:00,37618941,37618713,0,BrokenSegue,User talk:Tijuana Brass,/* Copy and paste move */ fix
2005-10-19T08:56:03+00:00,25904427,25726733,0,とある白い猫,User talk:Tijuana Brass,
2006-01-13T17:41:39+00:00,35038577,34992491,0,Ojibberish,User talk:Tijuana Brass,
2005-07-27T12:12:23+00:00,19709324,19010327,0,Dan100,User talk:Weyes,come back soon...
2005-12-22T16:10:21+00:00,32370548,25929941,0,Brookie,User talk:Weyes,
2005-05-21T02:53:37+00:00,14095596,14005286,0,FayssalF,User talk:Weyes,Ira stoll
2005-05-08T17:23:57+00:00,13909944,13431072,0,Polarscribe,User talk:Weyes,/* Note */
2006-01-29T03:38:10+00:00,37164413,37164168,0,Sunray,User talk:Will Beback/Revisions,what could be done about this
2005-08-30T18:05:29+00:00,22189639,0,0,82.81.109.104,User talk:Wsiegmund,
2006-03-15T04:44:39+00:00,43843677,43842500,0,Lightdarkness,User:JDoorjam/Archive04,Some CSD's tonight
2005-08-30T17:19:22+00:00,22186941,22185748,0,Snackwell,User:JDoorjam/Archive04,/* Language choices */
2005-08-02T22:22:08+00:00,20145442,20145412,0,Redwolf24,User:JDoorjam/Archive04,Fixing formatting on your table
2005-08-14T04:04:45+00:00,20969548,20905870,0,Tearlach,User:JDoorjam/Archive04,/* [[Mark H. Pritchard]] */
2006-01-02T01:16:30+00:00,33538984,33536079,0,AZCactus1,User:JDoorjam/Archive04,/* University of Arizona */
2006-02-10T19:36:02+00:00,39106257,39046598,0,199.111.238.28,User:JDoorjam/Archive04,/* St. Albans School */
