timestamp,revid,parentid,sock,user,page,message
2016-03-28T03:08:18+00:00,712271780,712270547,1,Shadowthedog,Tibor Machan,/* Bibliography */
2016-03-28T02:57:18+00:00,712270547,712060452,1,Shadowthedog,Tibor Machan,
2015-09-14T04:30:49+00:00,680936375,680936323,1,Shadowthedog,Scott Sumner,
2015-09-14T04:30:23+00:00,680936323,659388490,1,Shadowthedog,Scott Sumner,
2013-07-04T18:56:25+00:00,562869200,562833910,1,Shadowthedog,User talk:Shadowthedog,/* Blocked for sockpuppetry */ I am not a sockpuppet. Thank you
2013-07-03T19:15:01+00:00,562732181,562732156,1,Shadowthedog,User:Shadowthedog,[[WP:AES|←]]Blanked the page
2013-07-03T19:14:49+00:00,562732156,0,1,Shadowthedog,User:Shadowthedog,[[WP:AES|←]]Created page with 'x'
2013-07-02T00:40:07+00:00,562472758,562467244,1,Shadowthedog,Independent Institute,
2013-04-02T02:51:27+00:00,548256044,548255904,1,Shadowthedog,Álvaro Vargas Llosa,
2013-04-02T02:50:18+00:00,548255904,548255835,1,Shadowthedog,Álvaro Vargas Llosa,/* Life */
2013-04-02T02:49:43+00:00,548255835,545988737,1,Shadowthedog,Álvaro Vargas Llosa,/* Life */
2013-01-13T00:02:35+00:00,532778996,532778659,1,Shadowthedog,James M. Buchanan,/* External links */
2013-01-13T00:01:37+00:00,532778860,532778340,1,Shadowthedog,Vernon L. Smith,/* External links */
2013-01-13T00:00:08+00:00,532778659,532778589,1,Shadowthedog,James M. Buchanan,
2013-01-12T23:59:32+00:00,532778589,532605485,1,Shadowthedog,James M. Buchanan,
2013-01-12T23:57:25+00:00,532778340,532778289,1,Shadowthedog,Vernon L. Smith,/* External links */
2013-01-12T23:57:00+00:00,532778289,532777857,1,Shadowthedog,Vernon L. Smith,/* External links */
2012-10-25T16:27:01+00:00,519784796,519660679,1,Shadowthedog,Ayn Rand Institute,/* External links */
2012-10-23T18:01:31+00:00,519428662,519227290,1,Shadowthedog,Ayn Rand Institute,/* External links */
2012-08-05T17:47:43+00:00,505933889,505374147,1,Shadowthedog,List of political magazines,/* Currently published */
2012-07-14T16:18:40+00:00,502249094,502248863,1,Shadowthedog,John C. Goodman,
2012-07-14T16:17:13+00:00,502248863,500860661,1,Shadowthedog,John C. Goodman,
2012-05-25T02:36:40+00:00,494250106,494249833,1,Shadowthedog,Peter Thiel,/* External links */
2012-05-25T02:33:45+00:00,494249833,494249786,1,Shadowthedog,Peter Thiel,/* External links */
2012-05-25T02:33:17+00:00,494249786,493669139,1,Shadowthedog,Peter Thiel,/* External links */
2011-02-26T21:34:28+00:00,416097566,414976631,1,Shadowthedog,Fred Singer,/* Further reading */
2011-01-15T22:08:57+00:00,408095151,314761638,1,Shadowthedog,Don Kates,
2006-09-05T01:25:20+00:00,73861022,73831058,1,Shadowthedog,User talk:Woohookitty,/* Not Spamming */
2006-09-04T22:00:56+00:00,73831058,73748761,1,Shadowthedog,User talk:Woohookitty,/* Steve Irwin */
2006-09-04T07:21:08+00:00,73716650,73560878,1,Shadowthedog,Natural law,/* External links */
2006-09-04T07:18:42+00:00,73716394,73560862,1,Shadowthedog,Classical liberalism,/* External links */
2006-09-04T07:12:19+00:00,73715740,73699955,1,Shadowthedog,Free market,/* External links */
2006-09-04T07:10:24+00:00,73715536,73651468,1,Shadowthedog,Libertarianism,/* Publications and Websites about Libertarianism */
2006-09-04T07:08:27+00:00,73715306,72335800,1,Shadowthedog,Frédéric Bastiat,/* External links */
2006-09-04T07:07:42+00:00,73715204,73672387,1,Shadowthedog,Adam Smith,/* External links */
2006-09-04T07:05:00+00:00,73714873,72943797,1,Shadowthedog,Friedrich Hayek,/* External links */
2006-09-04T07:04:14+00:00,73714790,73685789,1,Shadowthedog,Ludwig von Mises,/* External links */
2006-09-04T07:02:45+00:00,73714614,70993042,1,Shadowthedog,Austrian school of economics,/* External links */
2006-09-04T07:01:06+00:00,73714440,73615254,1,Shadowthedog,Public choice,/* External links */
2006-09-04T06:58:49+00:00,73714193,72789726,1,Shadowthedog,N. T. Wright,/* External links */
2006-09-03T02:51:36+00:00,73507462,73506556,1,Shadowthedog,Anarcho-capitalism,/* External links */
2006-09-03T02:48:41+00:00,73507094,73329839,1,Shadowthedog,Non-aggression principle,/* External links */
2006-09-03T02:47:40+00:00,73506946,69931802,1,Shadowthedog,Self-ownership,/* External links */
2006-09-03T02:45:59+00:00,73506704,72277141,1,Shadowthedog,Individualism,/* External links */
2006-09-03T02:44:53+00:00,73506556,73453253,1,Shadowthedog,Anarcho-capitalism,/* Anarcho-capitalist websites and articles */
2006-09-03T02:43:36+00:00,73506403,73503956,1,Shadowthedog,Paleolibertarianism,/* External links */
2006-09-03T02:41:53+00:00,73506190,73420805,1,Shadowthedog,Classical liberalism,/* External links */
2006-09-03T02:39:43+00:00,73505904,72990229,1,Shadowthedog,Murray Rothbard,/* External links */
2006-09-03T02:37:03+00:00,73505605,72989254,1,Shadowthedog,Natural theology,/* External links */
2006-09-03T02:36:09+00:00,73505488,73405144,1,Shadowthedog,Thomas Aquinas,/* About Aquinas */
2006-09-03T02:35:11+00:00,73505373,71712473,1,Shadowthedog,Natural law,/* External links */
2006-09-03T02:34:20+00:00,73505278,72611528,1,Shadowthedog,Francisco Suárez,/* Sources and external links */
2006-09-03T02:33:30+00:00,73505178,53822169,1,Shadowthedog,Étienne Gilson,/* External links */
2006-09-03T01:43:59+00:00,73498570,72343275,1,Shadowthedog,Apologetics,/* External links */
2006-09-03T01:41:22+00:00,73498243,62618645,1,Shadowthedog,William Alston,/* External links */
2006-09-03T01:35:34+00:00,73497474,73215392,1,Shadowthedog,Nicholas Wolterstorff,/* External links */
2006-09-03T01:29:28+00:00,73496666,71065527,1,Shadowthedog,Theodicy,/* External links */
2006-09-03T01:20:05+00:00,73495356,72898367,1,Shadowthedog,Libertarianism (metaphysics),/* Further reading */
2006-09-03T01:14:48+00:00,73494616,73170456,1,Shadowthedog,Free will,/* External links */
2006-09-03T00:57:37+00:00,73492240,72672938,1,Shadowthedog,Peter van Inwagen,/* See also */
2006-09-03T00:56:13+00:00,73492046,72423011,1,Shadowthedog,Christian philosophy,/* External links */
2006-09-03T00:55:07+00:00,73491887,70229192,1,Shadowthedog,Scholasticism,/* External links */
2006-09-03T00:51:02+00:00,73491304,73461960,1,Shadowthedog,Christianity,/* External links */
2006-09-03T00:46:55+00:00,73490756,73490413,1,Shadowthedog,An Experiment in Criticism,
2006-09-03T00:46:33+00:00,73490691,40788224,1,Shadowthedog,Studies in Words,
2006-09-03T00:44:34+00:00,73490413,70628507,1,Shadowthedog,An Experiment in Criticism,
2006-09-03T00:42:10+00:00,73490074,73410347,1,Shadowthedog,Out of the Silent Planet,/* External links */
2006-09-03T00:41:37+00:00,73489984,72973706,1,Shadowthedog,Perelandra,/* External links */
2006-09-03T00:29:49+00:00,73488235,65526129,1,Shadowthedog,A Grief Observed,/* External links */
2006-09-02T01:46:45+00:00,73327744,71594878,1,Shadowthedog,Charles Williams (British writer),/* External links */
2006-09-02T01:46:01+00:00,73327652,73144082,1,Shadowthedog,G. K. Chesterton,/* External links */
2006-09-02T01:45:15+00:00,73327554,72876238,1,Shadowthedog,Dorothy L. Sayers,/* External links */
2006-09-02T01:44:35+00:00,73327467,72926981,1,Shadowthedog,The Inklings,/* External links */
2006-09-02T01:44:09+00:00,73327416,72883214,1,Shadowthedog,J. R. R. Tolkien,/* External links */
2006-09-02T01:43:32+00:00,73327319,72973736,1,Shadowthedog,That Hideous Strength,/* External links */
2006-09-02T01:42:28+00:00,73327178,73326963,1,Shadowthedog,Narnia (world),/* External links */
2006-09-02T01:41:17+00:00,73327050,73314297,1,Shadowthedog,The Chronicles of Narnia: Prince Caspian,/* External links */
2006-09-02T01:40:39+00:00,73326963,73326896,1,Shadowthedog,Narnia (world),/* External links */
2006-09-02T01:40:07+00:00,73326896,73212206,1,Shadowthedog,Narnia (world),/* External links */
2006-09-02T01:39:02+00:00,73326767,70607869,1,Shadowthedog,The Screwtape Letters,/* External Links */
2006-09-02T01:38:29+00:00,73326710,72999111,1,Shadowthedog,George MacDonald,/* External links */
2006-09-02T01:37:36+00:00,73326595,66573782,1,Shadowthedog,Spirits in Bondage,/* External links */
2006-09-02T01:36:16+00:00,73326423,72713131,1,Shadowthedog,Prince Caspian,/* External links */
2006-09-02T01:35:49+00:00,73326367,73176196,1,Shadowthedog,The Chronicles of Narnia (film series),/* External links */
2006-09-02T01:34:50+00:00,73326257,69663443,1,Shadowthedog,Douglas Gresham,/* External links */
2006-09-02T01:23:19+00:00,73324790,71571735,1,Shadowthedog,Shadowlands (play),/* External links */
2006-09-02T01:22:10+00:00,73324643,64226864,1,Shadowthedog,Surprised by Joy,/* External links */
2006-09-02T01:21:03+00:00,73324510,72845542,1,Shadowthedog,Till We Have Faces,/* External links */
2006-09-02T01:19:29+00:00,73324303,73270033,1,Shadowthedog,The Space Trilogy,/* External links */
2006-09-02T01:18:57+00:00,73324236,62984390,1,Shadowthedog,The Pilgrim's Regress,/* External link */
2006-09-02T01:17:07+00:00,73324005,72342000,1,Shadowthedog,J. P. Moreland,/* External links */
2006-09-02T01:16:42+00:00,73323943,72738747,1,Shadowthedog,Alister McGrath,/* External links */
2006-09-02T01:15:47+00:00,73323826,72339285,1,Shadowthedog,Peter Kreeft,/* Home page */
2006-09-02T01:13:48+00:00,73323583,72340790,1,Shadowthedog,Gary Habermas,/* External links */
2006-09-02T01:11:49+00:00,73323315,72340487,1,Shadowthedog,William Lane Craig,/* External links */
2006-09-02T01:10:40+00:00,73323167,73262784,1,Shadowthedog,Christian apologetics,/* External links */
2006-09-02T01:08:55+00:00,73322935,70944158,1,Shadowthedog,Mere Christianity,/* External link */
2006-09-02T01:07:58+00:00,73322823,67527268,1,Shadowthedog,The Abolition of Man,/* External links */
2006-09-02T01:06:06+00:00,73322559,72974276,1,Shadowthedog,"The Lion, the Witch and the Wardrobe",/* References */
2006-09-02T00:56:37+00:00,73321404,73316377,1,Shadowthedog,The Chronicles of Narnia,/* External links */
2006-09-02T00:55:11+00:00,73321206,73301549,1,Shadowthedog,C. S. Lewis,/* External links */
2006-08-31T07:15:25+00:00,72982116,72982060,1,Shadowthedog,Independent Institute,
2006-08-31T07:14:45+00:00,72982060,72513579,1,Shadowthedog,Independent Institute,
2006-08-29T01:12:17+00:00,72513579,72513151,1,Shadowthedog,Independent Institute,
2006-08-29T01:09:46+00:00,72513151,72512178,1,Shadowthedog,Independent Institute,
2006-08-29T01:04:26+00:00,72512178,72510924,1,Shadowthedog,Independent Institute,
2006-08-29T00:57:40+00:00,72510924,72509764,1,Shadowthedog,Independent Institute,
2006-08-29T00:51:01+00:00,72509764,72509574,1,Shadowthedog,Independent Institute,
2006-08-29T00:50:02+00:00,72509574,72502759,1,Shadowthedog,Independent Institute,
2006-08-29T00:12:25+00:00,72502759,72502568,1,Shadowthedog,Independent Institute,
2006-08-29T00:11:24+00:00,72502568,72501739,1,Shadowthedog,Independent Institute,
2006-08-29T00:07:24+00:00,72501739,72501653,1,Shadowthedog,Independent Institute,
2006-08-29T00:06:57+00:00,72501653,72501535,1,Shadowthedog,Independent Institute,
2006-08-29T00:06:23+00:00,72501535,72501068,1,Shadowthedog,Independent Institute,
2006-08-29T00:03:51+00:00,72501068,72500995,1,Shadowthedog,Independent Institute,
2006-08-29T00:03:25+00:00,72500995,72500609,1,Shadowthedog,Independent Institute,
2006-08-29T00:01:25+00:00,72500609,72500293,1,Shadowthedog,Independent Institute,
2006-08-28T23:59:50+00:00,72500293,72500123,1,Shadowthedog,Independent Institute,
2006-08-28T23:58:57+00:00,72500123,72500072,1,Shadowthedog,Independent Institute,
2006-08-28T23:58:37+00:00,72500072,72499640,1,Shadowthedog,Independent Institute,
2006-08-28T23:56:15+00:00,72499640,72498163,1,Shadowthedog,Independent Institute,
2006-08-28T23:48:27+00:00,72498163,72497931,1,Shadowthedog,Independent Institute,
2006-08-28T23:47:11+00:00,72497931,72497519,1,Shadowthedog,Independent Institute,
2006-08-28T23:45:04+00:00,72497519,72497269,1,Shadowthedog,Independent Institute,
2006-08-28T23:43:46+00:00,72497269,72497053,1,Shadowthedog,Independent Institute,
2006-08-28T23:42:46+00:00,72497053,72496259,1,Shadowthedog,Independent Institute,
2006-08-28T23:38:47+00:00,72496259,72496114,1,Shadowthedog,Independent Institute,
2006-08-28T23:38:04+00:00,72496114,72495624,1,Shadowthedog,Independent Institute,
2006-08-28T23:35:39+00:00,72495624,72495129,1,Shadowthedog,Independent Institute,
2006-08-28T23:33:01+00:00,72495129,72495045,1,Shadowthedog,Independent Institute,
2006-08-28T23:32:34+00:00,72495045,72494974,1,Shadowthedog,Independent Institute,
2006-08-28T23:32:11+00:00,72494974,72494552,1,Shadowthedog,Independent Institute,
2006-08-28T23:30:04+00:00,72494552,72494423,1,Shadowthedog,Independent Institute,
2006-08-28T23:29:28+00:00,72494423,72494155,1,Shadowthedog,Independent Institute,
2006-08-28T23:28:11+00:00,72494155,72493889,1,Shadowthedog,Independent Institute,
2006-08-28T23:26:38+00:00,72493889,72493178,1,Shadowthedog,Independent Institute,
2006-08-28T23:22:56+00:00,72493178,72493091,1,Shadowthedog,Independent Institute,
2006-08-28T23:22:29+00:00,72493091,72492414,1,Shadowthedog,Independent Institute,
2006-08-28T23:19:00+00:00,72492414,72491410,1,Shadowthedog,Independent Institute,
2006-08-28T23:13:38+00:00,72491410,72491079,1,Shadowthedog,Independent Institute,
2006-08-28T23:11:54+00:00,72491079,72490429,1,Shadowthedog,Independent Institute,
2006-08-28T23:08:30+00:00,72490429,72490306,1,Shadowthedog,Independent Institute,
2006-08-28T23:07:56+00:00,72490306,72490223,1,Shadowthedog,Independent Institute,
2006-08-28T23:07:31+00:00,72490223,72490145,1,Shadowthedog,Independent Institute,
2006-08-28T23:07:03+00:00,72490145,72490015,1,Shadowthedog,Independent Institute,
2006-08-28T23:06:26+00:00,72490015,72489675,1,Shadowthedog,Independent Institute,
2006-08-28T23:04:23+00:00,72489675,72489442,1,Shadowthedog,Independent Institute,
2006-08-28T23:03:13+00:00,72489442,72489360,1,Shadowthedog,Independent Institute,
2006-08-28T23:02:43+00:00,72489360,72489243,1,Shadowthedog,Independent Institute,
2006-08-28T23:02:10+00:00,72489243,72489140,1,Shadowthedog,Independent Institute,
2006-08-28T23:01:36+00:00,72489140,72488717,1,Shadowthedog,Independent Institute,
2006-08-28T22:59:24+00:00,72488717,72487696,1,Shadowthedog,Independent Institute,
2006-08-28T22:53:49+00:00,72487696,72487468,1,Shadowthedog,Independent Institute,
2006-08-28T22:52:31+00:00,72487468,72487389,1,Shadowthedog,Independent Institute,
2006-08-28T22:52:02+00:00,72487389,72487309,1,Shadowthedog,Independent Institute,
2006-08-28T22:51:35+00:00,72487309,72485973,1,Shadowthedog,Independent Institute,
2006-08-28T22:44:16+00:00,72485973,60424391,1,Shadowthedog,Independent Institute,
2013-06-20T19:14:00+00:00,560790465,560790158,1,IndependentRob,Independent Institute,/* Funding */ removed due to major factual error per Sr. VP at Independent Institute
2013-06-20T19:11:29+00:00,560790158,560789442,1,IndependentRob,Independent Institute,"/* The Independent Institute, Microsoft Money and Oracle's Private Investigators */ removed section due to major factual errors, per Sr. VP at Independent Institute"
2013-06-20T19:04:39+00:00,560789286,560774591,1,IndependentRob,Independent Institute,"/* The Independent Institute, Microsoft Money and Oracle's Private Investigators */"
2013-07-05T23:49:28+00:00,563039375,563038411,1,Jurtal,User talk:Jurtal,/* Blocked as a sockpuppet */
2013-07-05T23:37:08+00:00,563038411,563038162,1,Jurtal,User talk:Jurtal,/* Blocked as a sockpuppet */
2013-07-05T23:33:59+00:00,563038162,563037383,1,Jurtal,User talk:Jurtal,/* Blocked as a sockpuppet */
2013-07-05T23:24:32+00:00,563037383,563037271,1,Jurtal,User talk:Jurtal,/* Blocked as a sockpuppet */
2013-07-05T23:23:05+00:00,563037271,563037209,1,Jurtal,User talk:Jurtal,/* Blocked as a sockpuppet */
2013-07-05T23:22:26+00:00,563037209,563037152,1,Jurtal,User talk:Jurtal,/* Blocked as a sockpuppet */
2013-07-05T23:21:49+00:00,563037152,562961912,1,Jurtal,User talk:Jurtal,/* Blocked as a sockpuppet */
2013-07-05T04:34:58+00:00,562930486,562872668,1,Jurtal,User talk:Jurtal,/* Blocked as a sockpuppet */
2013-07-04T19:24:39+00:00,562872668,562872600,1,Jurtal,User talk:Jurtal,/* Blocked as a sockpuppet */
2013-07-04T19:24:06+00:00,562872600,562872577,1,Jurtal,User talk:Jurtal,/* Blocked as a sockpuppet */
2013-07-04T19:23:52+00:00,562872577,562872181,1,Jurtal,User talk:Jurtal,/* Blocked as a sockpuppet */
2013-07-04T19:20:31+00:00,562872181,562867776,1,Jurtal,User talk:Jurtal,/* Blocked as a sockpuppet */
2013-07-04T18:44:17+00:00,562867776,562833909,1,Jurtal,User talk:Jurtal,
2013-07-04T08:26:37+00:00,562804676,562804299,1,Jurtal,Wikipedia:Sandbox,
2013-07-04T06:38:45+00:00,562795734,562793476,1,Jurtal,Wikipedia:Sockpuppet investigations/Shadowthedog,/* Comments by other users */
2013-07-03T23:16:35+00:00,562759119,562758284,1,Jurtal,Wikipedia:Sockpuppet investigations/Shadowthedog,/* Comments by other users */
2013-07-03T23:05:42+00:00,562758163,562747748,1,Jurtal,Talk:Independent Institute,/* Edit-warring by Jurtal */
2013-07-03T21:21:56+00:00,562747748,562747689,1,Jurtal,Talk:Independent Institute,/* Edit-warring by Jurtal */
2013-07-03T21:21:17+00:00,562747689,562746064,1,Jurtal,Talk:Independent Institute,/* Edit-warring by Jurtal */
2013-07-03T21:06:58+00:00,562746064,562745943,1,Jurtal,Talk:Independent Institute,/* Edit-warring by Jurtal */
2013-07-03T21:06:02+00:00,562745943,562735368,1,Jurtal,Talk:Independent Institute,/* Edit-warring by Jurtal */
2013-07-03T20:45:00+00:00,562743328,562741008,1,Jurtal,Wikipedia:Sockpuppet investigations/Shadowthedog,/* 03 July 2013 */
2013-07-03T08:11:54+00:00,562662275,562661669,1,Jurtal,Independent Institute,/* Funding */
2013-07-03T08:03:56+00:00,562661669,562660584,1,Jurtal,Independent Institute,/* Funding */
2013-07-03T07:50:41+00:00,562660584,562650329,1,Jurtal,Independent Institute,Added additional info to Funding section.
2013-07-03T07:27:08+00:00,562659013,562361108,1,Jurtal,Scientology,
2013-07-03T06:35:33+00:00,562654990,562654945,1,Jurtal,User talk:Jurtal,/* Question re: multiple accounts */
2013-07-03T06:35:00+00:00,562654945,562653740,1,Jurtal,User talk:Jurtal,/* Question re: multiple accounts */
2013-07-03T06:15:39+00:00,562653546,562652711,1,Jurtal,User:LysanderMises,[[WP:AES|←]]Blanked the page
2013-07-03T06:13:25+00:00,562653348,562649198,1,Jurtal,Talk:Independent Institute,/* Tobacco Industry Section */
2013-07-03T05:18:27+00:00,562649207,0,1,Jurtal,User talk:Jurtal,[[WP:AES|←]]Created page with 'Talk page.'
2013-07-03T05:17:58+00:00,562649163,562649006,1,Jurtal,Talk:Independent Institute,/* Tobacco Industry Section */
2013-07-03T05:16:24+00:00,562649006,562648357,1,Jurtal,Talk:Independent Institute,/* Tobacco Industry Section */
2013-07-03T05:09:47+00:00,562648357,562648237,1,Jurtal,Talk:Independent Institute,/* Edit-warring by Jurtal */
2013-07-03T05:08:25+00:00,562648237,562637804,1,Jurtal,Talk:Independent Institute,/* Edit-warring by Jurtal */
2013-07-03T03:10:16+00:00,562637804,562637767,1,Jurtal,Talk:Independent Institute,/* Tobacco Industry Section */
2013-07-03T03:09:51+00:00,562637767,562637481,1,Jurtal,Talk:Independent Institute,/* Tobacco Industry Section */
2013-07-03T03:08:37+00:00,562637639,562637608,1,Jurtal,Independent Institute,/* Policy positions */
2013-07-03T03:08:12+00:00,562637608,562637522,1,Jurtal,Independent Institute,/* Policy positions */
2013-07-03T03:07:08+00:00,562637522,562625917,1,Jurtal,Independent Institute,/* Policy positions */
2013-07-03T03:06:39+00:00,562637481,562623705,1,Jurtal,Talk:Independent Institute,/* Tobacco Industry Section */
2013-07-03T00:45:44+00:00,562623705,562623467,1,Jurtal,Talk:Independent Institute,/* Tobacco Industry Section */
2013-07-03T00:43:15+00:00,562623467,562621966,1,Jurtal,Talk:Independent Institute,/* Edit-warring by Jurtal */
2013-07-03T00:28:06+00:00,562621966,562621443,1,Jurtal,Talk:Independent Institute,/* Tobacco Industry Section */
2013-07-03T00:26:19+00:00,562621774,562615853,1,Jurtal,Independent Institute,Deleted unsubstantiated tobacco information.
2013-07-03T00:22:48+00:00,562621443,562619800,1,Jurtal,Talk:Independent Institute,/* Tobacco Industry Section */
2013-07-03T00:06:57+00:00,562619800,562619713,1,Jurtal,Talk:Independent Institute,/* Edit-warring by Jurtal */
2013-07-03T00:06:09+00:00,562619713,562618948,1,Jurtal,Talk:Independent Institute,/* Edit-warring by Jurtal */
2013-07-02T23:58:52+00:00,562618948,562618874,1,Jurtal,Talk:Independent Institute,/* Tobacco Industry Section */
2013-07-02T23:57:55+00:00,562618874,562618683,1,Jurtal,Talk:Independent Institute,/* Tobacco Industry Section */
2013-07-02T23:55:50+00:00,562618683,562618409,1,Jurtal,Talk:Independent Institute,/* Tobacco Industry Section */
2013-07-02T23:52:38+00:00,562618409,562617967,1,Jurtal,Talk:Independent Institute,/* Tobacco Industry Section */
2013-07-02T23:48:15+00:00,562617967,562617614,1,Jurtal,Talk:Independent Institute,/* Tobacco Industry Section */
2013-07-02T23:34:22+00:00,562616740,562615478,1,Jurtal,Talk:Independent Institute,/* Edit-warring by Jurtal */
2013-07-02T23:21:00+00:00,562615478,562613068,1,Jurtal,Talk:Independent Institute,/* Tobacco Industry Section */
2013-07-02T22:58:01+00:00,562613068,562612935,1,Jurtal,Talk:Independent Institute,/* Tobacco Industry Section */
2013-07-02T22:56:49+00:00,562612935,562610269,1,Jurtal,Talk:Independent Institute,/* Tobacco Industry Section */
2013-07-02T22:54:44+00:00,562612700,562609676,1,Jurtal,Independent Institute,Deleted unsubstantiated tobacco info.  See talk page.
2013-07-02T21:00:36+00:00,562599505,562596408,1,Jurtal,Independent Institute,
2013-07-02T19:19:40+00:00,562587282,562584898,1,Jurtal,Independent Institute,Funding information belongs in the Funding section.  See talk page discussion.
2013-07-02T19:19:13+00:00,562587229,562584218,1,Jurtal,Talk:Independent Institute,/* Tobacco Industry Section */
2013-07-02T18:56:34+00:00,562584218,562578454,1,Jurtal,Talk:Independent Institute,/* Edit-warring by Jurtal */
2013-07-02T18:48:32+00:00,562583158,562577436,1,Jurtal,Independent Institute,Accepted Carlstak's shortened version of Events paragraph
2013-07-02T18:10:21+00:00,562578454,562563072,1,Jurtal,Talk:Independent Institute,/* Edit-warring by Jurtal */
2013-07-02T18:01:33+00:00,562577436,562569887,1,Jurtal,Independent Institute,Provided more complete quote of article to mitigate misleading impression that the statement is an attack on children.
2013-07-02T09:04:57+00:00,562517021,562494649,1,Jurtal,This Is the End,
2013-07-02T06:54:28+00:00,562506755,562506698,1,Jurtal,Talk:Independent Institute,/* Edit-warring by Jurtal */
2013-07-02T06:53:43+00:00,562506698,562504349,1,Jurtal,Talk:Independent Institute,/* Edit-warring by Jurtal */
2013-07-02T06:47:53+00:00,562506323,562501330,1,Jurtal,Independent Institute,Added Antitrust section
2013-07-02T06:21:35+00:00,562504349,562504017,1,Jurtal,Talk:Independent Institute,/* Edit-warring by Jurtal */
2013-07-02T06:17:30+00:00,562504017,562502107,1,Jurtal,Talk:Independent Institute,/* Edit-warring by Jurtal */
2013-07-02T05:42:12+00:00,562501330,562499037,1,Jurtal,Independent Institute,"re-added ""American"". Moved ""scholarly""."
2013-07-02T05:13:46+00:00,562499037,562491270,1,Jurtal,Independent Institute,/* Publications */
2013-07-02T03:36:10+00:00,562491270,562491120,1,Jurtal,Independent Institute,/* Funding */
2013-07-02T03:34:20+00:00,562491120,562488737,1,Jurtal,Independent Institute,Added links
2013-07-02T03:05:59+00:00,562488737,562472758,1,Jurtal,Independent Institute,clarified donation sentence.
2013-07-01T23:44:34+00:00,562467244,562465771,1,Jurtal,Independent Institute,
2013-07-01T23:30:58+00:00,562465771,562459373,1,Jurtal,Independent Institute,
2013-07-01T22:27:45+00:00,562459373,562437713,1,Jurtal,Independent Institute,Added Gun Control Policy positions section
2013-07-01T19:24:38+00:00,562437713,562417852,1,Jurtal,Independent Institute,"Re-added paragraph on event people, now with many citations"
2013-07-01T13:59:11+00:00,562395331,562393065,1,Jurtal,Independent Institute,Undid revision 562393065 by [[Special:Contributions/Carlstak|Carlstak]] ([[User talk:Carlstak|talk]]).  Please seek consensus on talk page before deleting major chunks of content.
2013-07-01T06:00:48+00:00,562351552,562167778,1,Jurtal,Independent Institute,Restored the content Carlstak had deleted.
2013-06-29T20:02:48+00:00,562153837,562081366,1,Jurtal,Independent Institute,Added citations for Twilight War awards
2013-06-29T08:03:10+00:00,562081366,561928590,1,Jurtal,Independent Institute,Updated broken link in citation.
2013-06-28T06:38:20+00:00,561928590,561863543,1,Jurtal,Independent Institute,Added citations for Independent Review and Student Programs sections
2013-06-27T18:24:41+00:00,561855276,561855245,1,Jurtal,Talk:Independent Institute,/* Edit-warring by Jurtal */
2013-06-27T18:24:22+00:00,561855245,561855154,1,Jurtal,Talk:Independent Institute,/* Edit-warring by Jurtal */
2013-06-27T18:23:34+00:00,561855154,561853684,1,Jurtal,Talk:Independent Institute,/* Edit-warring by Jurtal */
2013-06-27T18:22:15+00:00,561855005,561854986,1,Jurtal,Independent Institute,/* Tobacco Industry */
2013-06-27T18:22:03+00:00,561854986,561854916,1,Jurtal,Independent Institute,/* Environmental issues */
2013-06-27T18:21:32+00:00,561854916,561852122,1,Jurtal,Independent Institute,Added Off-topic tag to top of tobacco industry section
2013-06-27T18:05:40+00:00,561853249,561845083,1,Jurtal,Talk:Independent Institute,/* Environmental Issues Section */
2013-06-27T17:54:33+00:00,561851954,561851083,1,Jurtal,Independent Institute,Undid revision 561851083 by [[Special:Contributions/Carlstak|Carlstak]] ([[User talk:Carlstak|talk]])
2013-06-27T16:56:34+00:00,561845452,561840985,1,Jurtal,Independent Institute,"No one has offered justification on the Talk page for inclusion of the irrelevant Tobacco section.  Therefore, the consensus at this point is that the section should not be included on this page."
2013-06-27T16:55:07+00:00,561845307,0,1,Jurtal,User:Jurtal,[[WP:AES|←]]Created page with 'Jurtal is a Wikipedia editor.'
2013-06-27T16:53:01+00:00,561845083,561840298,1,Jurtal,Talk:Independent Institute,/* Tobacco Industry Section */
2013-06-27T16:12:32+00:00,561840538,561839631,1,Jurtal,Independent Institute,Deleted Tobacco industry section.  Nothing in this section has any relation to TII's work.  See reasoning on Talk page.
2013-06-27T16:10:22+00:00,561840298,561839765,1,Jurtal,Talk:Independent Institute,/* Environmental Issues Section */
2013-06-27T16:06:13+00:00,561839765,561839347,1,Jurtal,Talk:Independent Institute,/* Environmental Issues Section */
2013-06-27T16:05:06+00:00,561839631,561827537,1,Jurtal,Independent Institute,"Reverted environment issues section to improved version with reasons explained on the Talk page. Carlstalk, if you prefer the previous version, please take your justifications to the Talk page."
2013-06-27T16:02:44+00:00,561839347,561838938,1,Jurtal,Talk:Independent Institute,/* Environmental Issues Section */
2013-06-27T15:59:46+00:00,561838938,561797449,1,Jurtal,Talk:Independent Institute,/* Environmental Issues Section */
2013-06-27T09:13:48+00:00,561797449,561797400,1,Jurtal,Talk:Independent Institute,/* Environmental Issues Section */
2013-06-27T09:13:10+00:00,561797400,561788270,1,Jurtal,Talk:Independent Institute,/* Environmental Issues Section */
2013-06-27T07:17:29+00:00,561788270,561787835,1,Jurtal,Talk:Independent Institute,/* Tobacco Industry Section */
2013-06-27T07:13:09+00:00,561787835,561786230,1,Jurtal,Talk:Independent Institute,/* Tobacco Industry Section */
2013-06-27T06:54:04+00:00,561786152,561785439,1,Jurtal,Talk:Independent Institute,/* Tobacco Industry Section */ new section
2013-06-27T06:43:50+00:00,561785358,560838408,1,Jurtal,Talk:Independent Institute,/* Environmental Issues Section */ new section
2013-06-27T06:41:41+00:00,561785160,561783512,1,Jurtal,Independent Institute,/* Environmental issues */
2013-06-27T06:19:51+00:00,561783512,561781082,1,Jurtal,Independent Institute,/* Publications */
2013-06-27T05:46:21+00:00,561781082,561780901,1,Jurtal,Independent Institute,/* Publications */
2013-06-27T05:43:42+00:00,561780901,561763573,1,Jurtal,Independent Institute,"Italicized second occurrence of ""The Independent Review"", and capitalized the ""The"".  Added paragraph about mygovcost.org."
2013-06-27T00:24:10+00:00,561750718,561741051,1,Jurtal,Independent Institute,Removed the statement that the organization has opposed restrictions on reproductive rights.  No source for this assertion is given and very little on this subject can be found on the organization's website.
2013-06-26T22:50:25+00:00,561741051,561739637,1,Jurtal,Independent Institute,Added higher resolution logo
2013-06-26T22:37:25+00:00,561739637,561620405,1,Jurtal,Independent Institute,
2013-06-26T22:27:08+00:00,561738547,557627975,1,Jurtal,Rapid Action Battalion,
2013-06-26T22:26:21+00:00,561738456,559970379,1,Jurtal,Copenhagen RLFC,
2013-06-26T22:25:46+00:00,561738376,561435170,1,Jurtal,Alessandro Dudan,/* Dalmatia on the Italian art */
2013-06-26T22:24:58+00:00,561738260,561505171,1,Jurtal,Input–output memory management unit,/* Advantages */
2013-06-26T22:23:59+00:00,561738132,561106732,1,Jurtal,Adimai Penn,/* Plot: minor grammar change */
2013-06-26T22:22:54+00:00,561737978,560760222,1,Jurtal,Tumult of Aranjuez,/* Pre-mutiny: grammar change*/
2013-06-25T07:17:30+00:00,561478414,561478365,1,Jurtal,The Black Hole (1979 film),/* Reception */
2013-06-25T07:17:03+00:00,561478365,560081624,1,Jurtal,The Black Hole (1979 film),/* Reception: added ebert review*/
2013-06-25T07:10:48+00:00,561477819,560749727,1,Jurtal,Sleeping with the Enemy,/* Critical reception added ebert quote*/
2013-06-23T07:29:14+00:00,561169451,509057904,1,Jurtal,Natural Selection (2011 film),/* Awards and accolades: added ebert review link and reference*/
2013-06-23T07:17:45+00:00,561168689,560481548,1,Jurtal,Pink Moon,/* Reception and influence: Changed single quotes to double quotes. */
2013-06-23T06:33:09+00:00,561165526,561160731,1,Jurtal,World War Z (film),/* Box office */
2007-09-27T02:02:29+00:00,160607402,157263521,0,74.130.10.115,A Grief Observed,"/* External links */  I removed an external link to a page that advertises a Christian literature seminar, but provides no infomation relevant to the book 'A Grief Observed'"
2007-03-16T13:15:05+00:00,115546973,115542400,0,Skomorokh,Anarcho-capitalism,"rv pov ""npov"" edits"
2012-02-12T20:33:22+00:00,476508341,471599821,0,Luckas-bot,Alister McGrath,r2.7.1) (Robot: Adding [[it:Alister McGrath]]
2008-03-16T12:12:08+00:00,198615014,198422553,0,86.140.234.203,Alister McGrath,spelling
2011-07-26T19:30:39+00:00,441585759,439499740,0,Idioma-bot,Adam Smith,r2.6.3) (robot Adding: [[ky:Адам Смит]]
2011-07-09T12:46:19+00:00,438571031,435667428,0,Yobot,Adam Smith,Updated infobox (BRFA 21) using [[Project:AWB|AWB]] (7782)
2009-06-11T13:57:57+00:00,295781603,196475720,0,202.93.165.193,An Experiment in Criticism,/* External links */
2014-02-14T21:48:03+00:00,595505605,595447082,0,ConcordeMandalorian,Anarcho-capitalism,I have added another term known to refer to anarcho-capitalism. I have provided a citation.
2015-10-31T13:07:23+00:00,688367820,688367811,0,ClueBot NG,Anarcho-capitalism,"Reverting possible vandalism by [[Special:Contribs/185.23.49.27|185.23.49.27]] to version by Materialscientist. [[WP:CBFP|Report False Positive?]] Thanks, [[WP:CBNG|ClueBot NG]]. (2413726) (Bot)"
2007-04-18T23:49:36+00:00,123949153,106604027,0,Pegship,An Experiment in Criticism,sort
2008-03-07T05:38:00+00:00,196475720,196475220,0,Shirahadasha,An Experiment in Criticism,Clarification
2009-04-03T06:36:32+00:00,281452450,281060412,0,116.75.197.9,A Grief Observed,
2006-10-10T05:00:42+00:00,80558760,77948719,0,24.174.101.13,Apologetics,/* Modern era */
2011-12-24T04:22:48+00:00,467445366,466955056,0,HannahCoulter,Apologetics,/* See also */
2014-03-20T12:17:45+00:00,600441077,597459044,0,Fadesga,An Experiment in Criticism,
2013-02-25T10:31:52+00:00,540223266,539300002,0,JamesA,Anarcho-capitalism,wikivoyage template modifications using [[Project:AWB|AWB]]
2012-06-22T10:23:58+00:00,498810562,498745814,0,Felix Folio Secundus,C. S. Lewis,/* Secondary works */ standardise position of date; add some places & bibliog detail
2011-05-12T23:01:35+00:00,428836851,428835113,0,Deor,C. S. Lewis,[[Help:Reverting|Reverted]] edits by [[Special:Contributions/72.16.119.10|72.16.119.10]] ([[User talk:72.16.119.10|talk]]) to last version by Aiken drum
2007-03-03T07:24:29+00:00,112276375,110903001,0,24.13.96.182,Austrian school of economics,
2008-08-29T11:05:06+00:00,234965532,233863132,0,78.51.81.172,Ayn Rand Institute,"/* Diversity, affirmative action, and multiculturalism */"
2010-05-26T13:17:48+00:00,364293825,364260735,0,66.30.41.192,Christian apologetics,/* Current landscape */
2009-02-24T03:22:49+00:00,272880898,270607143,0,Shamir1,Ayn Rand Institute,/* Views on Islam and the War on Terror */
2009-03-14T05:08:48+00:00,277125947,276921747,0,SmackBot,Austrian school of economics,Date maintenance tags and general  fixes
2015-04-14T20:51:59+00:00,656501406,653006551,0,Michipedian,Ayn Rand Institute,I do not see this subtitle in any official documentation. Citation needed if re-inserted.
2006-11-28T07:40:08+00:00,90618530,88957062,0,Ekaterin-nl,Charles Williams (British writer),/* Complete Works */ corrected year of publication for figure of Beatrice
2008-11-09T08:44:58+00:00,250613946,250277757,0,DAGwyn,Ayn Rand Institute,"/* Free speech */ actually it is relevant to the preceding section, but better in a new section than lost altogether"
2013-01-09T21:11:11+00:00,532246380,531875318,0,StAnselm,Charles Williams (British writer),Better wikilink
2013-04-03T18:20:12+00:00,548525273,547623959,0,Aellithy,Christian philosophy,
2014-05-06T18:59:09+00:00,607369059,607233181,0,Monkbot,Christian apologetics,Task 3: Fix [[Help:CS1_errors#deprecated_params|CS1 deprecated coauthor parameter errors]]
2015-08-03T07:29:08+00:00,674333535,672950034,0,Lamar1909,Christianity,
2014-11-12T18:26:00+00:00,633556131,633555938,0,NebY,Christian philosophy,"Undid revision 633555938 by [[Special:Contributions/63.247.191.103|63.247.191.103]] ([[User talk:63.247.191.103|talk]]) encyclopedia, not facebook"
2013-11-23T16:04:30+00:00,582965493,582921270,0,JHP,Classical liberalism,Reverting previous edit. No justification given for disagreement.
2013-02-06T16:11:20+00:00,536896054,536802209,0,Rick Norwood,Classical liberalism,Move Jefferson from originators to history (see talk) plus minor edit for style.
2009-04-02T07:59:47+00:00,281251315,280568722,0,Anupam,Christianity,/* Protestant Reformation and Counter-Reformation */ added article adjective
2013-08-13T12:17:18+00:00,568349608,567977837,0,217.77.80.29,Classical liberalism,/* Free trade and world peace */
2010-06-13T06:21:09+00:00,367728360,367722433,0,Timotheus Canens,Classical liberalism,[[Help:Reverting|Reverted]] edits by [[Special:Contributions/75.80.31.215|75.80.31.215]] ([[User talk:75.80.31.215|talk]]) to last version by 71.191.205.110
2010-06-21T23:09:55+00:00,369451520,369442320,0,75.28.62.244,Douglas Gresham,
2012-05-09T22:32:47+00:00,491688670,453781907,0,Helpful Pixie Bot,Don Kates,ISBNs (Build KE)
2013-11-09T21:37:59+00:00,580952395,573649517,0,Tassedethe,Copenhagen RLFC,removed [[Category:Organisations based in Denmark]]; added [[Category:Organizations based in Denmark]] using [[WP:HC|HotCat]]
2008-07-29T13:57:16+00:00,228603368,220142695,0,Pfold,Dorothy L. Sayers,/* Marriage and later life */  7 years isn't nearly a decade
2015-02-23T18:40:46+00:00,648512011,648509235,0,AnomieBOT,Don Kates,Dating maintenance tags: {{Cn}}
2014-08-13T04:59:36+00:00,621013814,620149165,0,Altenmann,Dorothy L. Sayers,Reverted 1 edit by [[Special:Contributions/Anna2014ivanova|Anna2014ivanova]] ([[User talk:Anna2014ivanova|talk]]): Spam. ([[WP:TW|TW]])
2007-09-11T22:40:28+00:00,157252289,153259114,0,Meldor,Francisco Suárez,iw
2013-02-01T00:52:14+00:00,535950690,534314442,0,Naaman Brown,Fred Singer,"/* 1960: Artificial Phobos hypothesis */ tighten intro, add some refs"
2011-05-03T18:26:55+00:00,427275133,424517640,0,70.16.166.82,Douglas Gresham,
2008-01-03T19:51:40+00:00,181936731,176129292,0,Steven J. Anderson,Francisco Suárez,Disambiguate [[Dominicans]] to [[Dominican Order]] using [[:en:Wikipedia:Tools/Navigation_popups|popups]]
2008-07-22T18:22:04+00:00,227249491,227248839,0,GoRight,Fred Singer,/* The Great Global Warming Swindle */  - Typo in Singer's quote.
2014-01-27T19:06:00+00:00,592676044,592620750,0,Dmcq,Free market,Reverted 1 edit by [[Special:Contributions/72.94.241.111|72.94.241.111]] ([[User talk:72.94.241.111|talk]]) to last revision by 24.91.247.11. ([[WP:TW|TW]])
2009-03-13T12:44:20+00:00,276960783,276960112,0,The Thing That Should Not Be,Free market,Reverted edits by [[Special:Contributions/207.241.242.1|207.241.242.1]] to last revision by Versus22 ([[WP:HG|HG]])
2010-07-16T12:04:45+00:00,373791220,373789539,0,Edhubbard,Free will,revert cn; the entire rest of the article are the references that debate has centered around these issues.
2010-08-17T22:41:59+00:00,379483215,379426309,0,Peterdjones,Free will,Undid revision 379426309 by [[Special:Contributions/75.2.133.194|75.2.133.194]] ([[User talk:75.2.133.194|talk]])previous version made more sense
2014-01-19T05:44:53+00:00,591375225,590156958,0,Monkbot,Friedrich Hayek,Fix [[Help:CS1_errors#deprecated_params|CS1 deprecated date parameter errors]]
2008-07-17T18:29:42+00:00,226288507,226288111,0,Vision Thing,Friedrich Hayek,rm Relentless advance of socialism
2006-11-23T07:37:40+00:00,89613555,88991258,0,RiseAbove,Frédéric Bastiat,/* Bastiat's Negative Railroad */
2011-08-15T13:23:07+00:00,444970383,443497592,0,178.93.54.66,Frédéric Bastiat,"/* Negative railroad */ Corrected: ""Producers, on the other hand, can for combinations and trade groups and are thus able..."" to ""Producers, on the other hand, can form combinations and trade groups and are thus able..."""
2007-07-17T16:39:26+00:00,145250202,144661098,0,216.165.126.103,G. K. Chesterton,merged trivia and influences section...since they were pretty much the same
2011-07-07T07:59:17+00:00,438200240,437685295,0,FrescoBot,G. K. Chesterton,Bot: links syntax and minor changes
2012-01-30T17:10:51+00:00,474061312,452136741,0,12.204.194.160,Gary Habermas,/* Books */
2008-09-11T00:10:11+00:00,237609043,235945603,0,Lightbot,Gary Habermas,Units/dates/other
2011-09-11T07:53:22+00:00,449749080,449748820,0,Beyond My Ken,George MacDonald,/* See also */
2015-01-15T18:44:08+00:00,642637660,642621348,0,Carlstak,Independent Institute,"Reverted to revision 642418627 by [[Special:Contributions/Vidmastb|Vidmastb]]: This material relies excessively on sources too closely associated with the subject, preventing the article from being verifiable and neutral. . ([[WP:TW|TW]])"
2008-03-25T12:34:00+00:00,200783494,197958409,0,DumZiBoT,George MacDonald,"Bot: Converting bare references, see [[User:DumZiBoT/refLinks|FAQ]]"
2006-10-27T09:30:52+00:00,84018569,75590751,0,204.210.35.48,Independent Institute,citation needed
2015-09-16T18:17:44+00:00,681349866,681075985,0,MastCell,Independent Institute,"decrease [[WP:PUFFERY|puffery]], bring in line with sources"
2006-11-23T08:52:08+00:00,89620945,89620439,0,John Quiggin,Independent Institute,/* Funding */
2014-03-28T19:47:55+00:00,601700411,599852578,0,Adn1990,Independent Institute,
2012-12-08T16:39:14+00:00,527041272,527041120,0,SPECIFICO,Independent Institute,/* Funding */
2013-11-29T21:51:45+00:00,583834122,582483889,0,Vipul,Independent Institute,"/* Publications */ wikilinked ""The Independent Review"" -- the page has just been created"
2008-04-01T18:17:40+00:00,202598835,194795491,0,68.190.254.74,Independent Institute,/* War on Terror */
2011-09-01T19:40:13+00:00,447908786,441058766,0,Deulofeut,Independent Institute,
2007-03-23T14:25:39+00:00,117287872,103628879,0,Bastin,Independent Institute,Category
2012-02-27T10:08:58+00:00,479095073,478032400,0,Woohookitty,Independent Institute,[[:en:WP:CLEANER|WPCleaner]] (v1.11) Repaired link to disambiguation page - [[WP:DPL|(You can help)]] - [[National Geographic]]
2015-10-12T13:01:16+00:00,685367209,685367112,0,HildWheaton,Independent Institute,
2008-08-31T02:47:10+00:00,235305340,235225077,0,SmackBot,Independent Institute,Date the maintenance tags and general  fixes
2008-08-10T15:13:28+00:00,231030142,220447255,0,DumZiBoT,Independent Institute,"Bot: Converting bare references, using ref names to avoid duplicates, see [[User:DumZiBoT/refLinks|FAQ]]"
2010-12-30T20:41:11+00:00,405052380,403176793,0,Pmusser,Independent Institute,"/* Funding */  - replaced ""subscribing"" with ""ascribing"""
2007-08-01T13:29:54+00:00,148494078,148369253,0,DickClarkMises,Independent Institute,"rv: please see [[Wikipedia:Words_to_avoid#Claim]]; In my opinion, this usage constitutes a violation of NPOV. Re: ""theory"" please see the second full paragraph of [[theory]]"
2011-04-27T13:52:50+00:00,426207754,421402361,0,Jsg24,Independent Institute,/* Research fellows */
2015-02-15T16:57:35+00:00,647263845,646602822,0,Srich32977,Independent Institute,update McGann ranking
2010-07-01T17:55:12+00:00,371235982,371235548,0,BigK HeX,Independent Institute,/* Funding */ rm unbalanced self-sourced promotion
2015-01-13T05:18:41+00:00,642263649,641855919,0,Carlstak,Independent Institute,/* Funding */ Remove isolated example of funding
2015-08-07T20:41:02+00:00,675038515,674867529,0,Carlstak,Independent Institute,"Reverted [[WP:AGF|good faith]] edits by [[Special:Contributions/12.97.71.114|12.97.71.114]] ([[User talk:12.97.71.114|talk]]): Name of article is ""The Independent Institute"". ([[WP:TW|TW]])"
2010-11-10T12:18:05+00:00,395922488,395922172,0,Larrytheordinarydragon,Independent Institute,I do not see the evidence to support this text. This has already been brought up in talk.
2009-07-16T16:12:07+00:00,302435322,302434198,0,24.23.169.148,Independent Institute,/* War on Terror */
2013-02-17T14:23:33+00:00,538718475,538708901,0,Eumolpo,Independent Institute,orthographic
2007-04-21T14:29:50+00:00,124607662,124462625,0,Bastin,Independent Institute,Category
2010-05-24T01:11:41+00:00,363835448,363671807,0,151.204.252.227,Independent Institute,/* Research fellows */
2008-06-19T22:19:04+00:00,220447255,220446601,0,Stephan Schulz,Independent Institute,"Removed off-topic source, kept the good one."
2013-02-07T04:35:41+00:00,536999033,536998868,0,Carlstak,Independent Institute,/* External links */ Move link
2014-10-30T12:08:00+00:00,631741872,631741445,0,Carlstak,Independent Institute,/* Climate Change */ Fix ref
2011-12-21T17:57:49+00:00,467056702,467053924,0,AnomieBOT,Independent Institute,Dating maintenance tags: {{Citation needed}}
2006-12-20T21:50:26+00:00,95598625,95598452,0,Mbunch,Independent Institute,/* Funding */
2013-04-11T16:57:19+00:00,549871629,546510348,0,John of Reading,Independent Institute,"Typo/[[WP:AWB/GF|general]] fixing, replaced: the the → the using [[Project:AWB|AWB]]"
2009-10-05T09:00:12+00:00,318009106,316451687,0,Skomorokh,Independent Institute,moved [[Independent Institute]] to [[The Independent Institute]] over redirect: per uncontested [[WP:RM]] request
2014-02-22T01:50:36+00:00,596575377,596575235,0,Carlstak,Independent Institute,/* Funding */ Remove superfluous importance template
2011-03-21T18:36:00+00:00,420009906,420009489,0,Jchandlerg,Independent Institute,/* Publications */
2007-11-01T09:30:22+00:00,168476752,168430682,0,SmackBot,Independent Institute,Date/fix the maintenance tags or gen fixes
2009-03-08T04:30:11+00:00,275744367,267490305,0,96.239.135.220,Independent Institute,/* External links */
2013-09-08T11:47:47+00:00,572043273,572022062,0,Glaisher,Independent Institute,[[Help:Reverting|Reverted]] edits by [[Special:Contributions/99.181.135.238|99.181.135.238]] ([[User talk:99.181.135.238|talk]]) to last version by Download
2014-09-25T04:41:49+00:00,626986358,626986262,0,2601:D:7000:ACD:21D:4FFF:FEFE:1D87,Independent Institute,
2012-06-15T18:28:58+00:00,497753660,496930755,0,Safehaven86,Independent Institute,Undid revision 496930755 by [[Special:Contributions/174.91.218.175|174.91.218.175]] ([[User talk:174.91.218.175|talk]])
2014-07-24T20:28:08+00:00,618321648,618205582,0,Monkbot,Independent Institute,/* Publications */Task 5: Fix [[Help:CS1_errors#deprecated_params|CS1 deprecated coauthor parameter errors]]
2008-06-01T07:16:06+00:00,216354800,216339311,0,Will Beback,Independent Institute,/* Global warming */ +ref
2006-09-13T22:20:37+00:00,75590751,72982116,0,Hakluyt bean,Independent Institute,
2011-06-25T19:36:23+00:00,436199006,426207754,0,The Banner Turbo,Independent Institute,Fixing [[Wikipedia:Disambiguation pages with links|links to disambiguation pages]] using [[Project:AWB|AWB]]
2009-04-30T19:32:20+00:00,287106393,275744367,0,128.252.74.135,Independent Institute,/* Funding */
2016-01-07T19:14:37+00:00,698705298,698704797,0,Safehaven86,Independent Institute,correct hat not per WP article on [[Independence Institute]]
2012-05-22T01:19:14+00:00,493753837,488182715,0,Sburke,Independent Institute,"just adding the word ""American"", to note that the organization is American (altho with some international interests)"
2007-01-27T16:40:22+00:00,103628879,95598625,0,Al B. Free,Independent Institute,/* External links */ Added categories.
2010-04-19T22:34:33+00:00,357085563,355819520,0,GrahamHardy,Independent Institute,+defsort
2008-02-29T01:14:00+00:00,194795491,168476752,0,WatchAndObserve,Independent Institute,"/* Funding */ Fix wikilink for 'Peter Thiel', add italics for book titles"
2010-02-04T22:52:29+00:00,341983853,339820700,0,98.81.10.94,Independent Institute,/* War on Terror */
2008-11-04T04:29:09+00:00,249578077,248808929,0,Nihilo 01,Independent Institute,interwiki
2012-09-15T04:59:48+00:00,512573499,511970515,0,DGG,Independent Institute,/* Publications */ cpyed
2013-08-13T05:48:50+00:00,568316211,565269872,0,Download,Independent Institute,gen fixes using [[Project:AWB|AWB]]
2015-09-29T17:29:48+00:00,683335981,683291012,0,Carlstak,Independent Institute,Red links serve a purpose: to encourage the creation of new articles.
2010-04-11T06:09:04+00:00,355284981,349366319,0,Cydebot,Independent Institute,Robot - Moving category Libertarian think tanks based in the United States to Think tanks based in the United States per [[WP:CFD|CFD]] at [[Wikipedia:Categories_for_discussion/Log/2010_March_11]].
2007-07-09T09:55:27+00:00,143467520,143291545,0,SmackBot,Independent Institute,Date/fix the maintenance tags or gen fixes
2012-07-24T23:34:25+00:00,504029438,497753660,0,Srich32977,Independent Institute,Fixing style/layout errors Copyedit (minor)
2008-12-28T23:22:44+00:00,260572518,260002914,0,Colonies Chris,Independent Institute,"sp, date & link fixes, Replaced: Czeslaw Milosz → Czesław Miłosz  using [[Project:AutoWikiBrowser|AWB]]"
2008-09-10T20:04:08+00:00,237562547,235305340,0,Chealer,Independent Institute,/* War on Terror */ remove unsourced statement
2013-05-24T02:21:41+00:00,556521028,549871629,0,Theo's Little Bot,Independent Institute,Fixing references: adding url parameter ([[WP:BOT|bot]] - [[User:Theo's Little Bot/disable/archiveurl|disable]])
2016-02-02T14:06:07+00:00,702933894,702695326,0,Dewritech,Independent Institute,"clean up, [[WP:AWB/T|typo(s) fixed]]: atributed → attributed using [[Project:AWB|AWB]]"
2010-03-12T04:20:30+00:00,349366319,341983853,0,Hmains,Independent Institute,"refine cat, copyedit, and or AWB general fixes using [[Project:AWB|AWB]]"
2014-12-22T02:57:26+00:00,639129509,639129427,0,Acroterion,Independent Institute,Reverted edits by [[Special:Contribs/K6kaisbacktorollback|K6kaisbacktorollback]] ([[User talk:K6kaisbacktorollback|talk]]) to last version by ClueBot NG
2010-05-23T05:43:32+00:00,363671807,363670850,0,151.204.252.227,Independent Institute,/* Research fellows */
2013-07-22T02:24:46+00:00,565269872,562734534,0,FrescoBot,Independent Institute,Bot: [[User:FrescoBot/Links|link syntax/spacing]] and minor changes
2014-02-03T03:48:44+00:00,593679322,593678212,0,Carlstak,Independent Institute,Remove ref
2010-12-19T14:15:23+00:00,403176793,395922488,0,209.90.155.58,Independent Institute,disambiguation
2014-05-28T23:51:34+00:00,610565515,601700411,0,Srich32977,Independent Institute,one address in infobox (the headquarters); add coords
2010-01-26T07:17:42+00:00,340089375,340085450,0,Jadabocho,Individualism,"[[WP:UNDO|Undid]] revision 340085450 by [[Special:Contributions/Eduen|Eduen]] ([[User talk:Eduen|talk]]) anarchism includes collectivist forms of anarchism, so this doens't belong here"
2008-09-04T07:12:57+00:00,236188276,235025061,0,Jbond00747,Input–output memory management unit,/* IOMMU in relation to virtualization */
2009-01-29T21:13:03+00:00,267266542,251312615,0,207.188.235.137,Input–output memory management unit,"which vice that after ""traditional MMU"" in intro"
2010-03-16T07:03:37+00:00,350159624,350150258,0,Bill the Cat 7,J. P. Moreland,Undid revision 350150258 by [[Special:Contributions/70.247.30.17|70.247.30.17]] ([[User talk:70.247.30.17|talk]]) No reference for claim that he supports homosexual marriage.  Possible vandalism.
2013-10-29T06:21:19+00:00,579235082,570273764,0,Zambelo,J. P. Moreland,+cat
2013-02-10T21:58:03+00:00,537607729,537605549,0,Deor,J. R. R. Tolkien,"/* Language construction */ per LotR, Appendix F"
2011-04-22T01:33:08+00:00,425263778,425251995,0,Colincbn,J. R. R. Tolkien,"Undid revision 425251995 by [[Special:Contributions/Vt1947|Vt1947]] ([[User talk:Vt1947|talk]]) Good-faith edit, but the line already contains his status as a philologist."
2015-04-10T21:18:38+00:00,655886861,655881249,0,Sundayclose,Individualism,Reverted 2 edits by [[Special:Contributions/23.91.225.126|23.91.225.126]] ([[User talk:23.91.225.126|talk]]): Need clear sourcing in the articles that these categories apply. ([[WP:TW|TW]])
2010-08-26T19:34:24+00:00,381172527,380613867,0,Piotrus,James M. Buchanan,{{external links}} cleanup needed
2012-04-23T01:05:51+00:00,488741046,488740996,0,Nowa,James M. Buchanan,/* External links */
2010-05-24T12:55:23+00:00,363914995,359288753,0,Xqbot,James M. Buchanan,robot Modifying: [[uk:Джеймс М. Б'юкенен]]
2014-03-20T16:56:20+00:00,600472670,586321337,0,157.150.192.237,James M. Buchanan,
2015-02-11T22:01:10+00:00,646707821,646147420,0,66.86.241.254,James M. Buchanan,/* Biography */
2014-06-12T23:07:17+00:00,612697919,605271008,0,69.38.220.118,John C. Goodman,
2008-06-25T04:45:13+00:00,221586966,221586811,0,Masterpiece2000,James M. Buchanan,added a category
2014-04-22T09:20:20+00:00,605271008,582267339,0,194.168.147.250,John C. Goodman,/* Priceless */
2009-09-10T16:40:40+00:00,313025117,310193015,0,65.68.55.76,John C. Goodman,
2010-05-29T06:05:29+00:00,364798899,364056304,0,Andycjp,Libertarianism,/* History */ link
2013-02-28T05:58:39+00:00,541157941,534275573,0,Addbot,Libertarianism (metaphysics),"[[User:Addbot|Bot:]] Migrating 4 interwiki links, now provided by [[Wikipedia:Wikidata|Wikidata]] on [[d:q560566]] ([[User talk:Addbot|Report Errors]])"
2011-02-21T22:30:17+00:00,415215018,413189901,0,MAINEiac4434,List of political magazines,/* Currently published */
2007-11-26T20:29:38+00:00,173964977,166588301,0,24.125.212.95,Libertarianism (metaphysics),/* Free choice necessary for moral responsibility */
2009-01-27T20:11:52+00:00,266810664,264565411,0,209.212.72.11,List of political magazines,
2011-07-15T22:22:58+00:00,439692101,439419805,0,Byelf2007,Libertarianism,"Since this isn't a definition/description of libertarianism, I'm taking this out first"
2015-05-11T04:19:18+00:00,661793018,661792243,0,Koavf,Mere Christianity,/* External links */
2009-10-14T18:06:44+00:00,319853183,318501232,0,68.198.133.244,Ludwig von Mises,/* Further reading */
2012-06-12T05:03:53+00:00,497175344,495727618,0,Lawrencekhoo,Ludwig von Mises,/* Criticisms */ apparently deleted by IP
2013-08-08T18:28:16+00:00,567712972,567659324,0,Rbreen,Mere Christianity,nice essay but all original research
2014-07-12T12:20:48+00:00,616646725,615294475,0,Edward,Murray Rothbard,link [[state monopoly capitalism]] using [[User:Edward/Find link|Find link]]
2007-05-25T03:59:30+00:00,133337272,133337113,0,PrestonH,Narnia (world),Reverted edits by [[Special:Contributions/66.27.98.240|66.27.98.240]] to last version by 24.151.247.194
2008-10-09T21:30:07+00:00,244226513,241595611,0,Carlossuarez46,Narnia (world),dab Galma
2010-07-12T16:00:38+00:00,373099878,372420595,0,Champson1035,N. T. Wright,minor stylistic changes in an awkward sentence.
2012-08-04T13:28:58+00:00,505740387,505739770,0,86.153.102.64,Narnia (world),/* Witches */
2014-03-12T20:07:06+00:00,599333967,599316295,0,Epicgenius,Narnia (world),Reverted 1 [[WP:AGF|good faith]] edit by [[Special:Contributions/MadelynJoy26|MadelynJoy26]] using [[WP:STiki|STiki]] ([[user:Epicgenius/Terms and Conditions|Mistake?]] [[user talk:Epicgenius|Tell me.]])
2015-08-16T19:35:46+00:00,676403302,582181777,0,Wavelength,Natural Selection (2011 film),"applying [[WP:MOS]] in regard to [[hyphenation]]: —> ""23-year-old""—[[WP:MOS#Numbers]] (point 1)—[[WP:HYPHEN]], sub-subsection 3, points 3 and 8"
2006-10-20T18:21:08+00:00,82666711,82590144,0,Fbv65edel,Narnia (world),/* Witches */ reword; otherwise comparison has no purpose
2007-01-23T07:30:22+00:00,102622454,101770315,0,211.30.97.214,Narnia (world),
2009-07-12T00:18:40+00:00,301615919,300617959,0,91.14.197.149,Natural law,+Proposal to merge Natural and legal rights with Natural law
2013-05-17T18:50:11+00:00,555551340,555539182,0,Saddhiyama,Natural law,"rv to last version by Speahlman. Unsourced and dubious content additions, plus incorrect title change (capital J in English for titles)"
2013-06-30T19:18:33+00:00,562285422,559201729,0,Robertforsythe,Natural law,/* References */
2012-01-05T18:19:31+00:00,469756196,469756091,0,Denisarona,Natural law,[[Help:Reverting|Reverted]] edits by [[Special:Contributions/69.85.193.226|69.85.193.226]] ([[User talk:69.85.193.226|talk]]) to last version by ClueBot NG
2013-12-20T21:14:30+00:00,587008377,572989158,0,Pincrete,Natural theology,clearer preposition
2007-08-29T12:50:45+00:00,154376430,151805092,0,OfficePuter,Nicholas Wolterstorff,/* External links */
2014-02-03T20:41:58+00:00,593782497,593752857,0,Machine Elf 1735,Natural theology,not a creative principle / consistent era
2014-05-17T19:38:26+00:00,608998851,579930128,0,Jfhutson,Nicholas Wolterstorff,[[Help:Cat-a-lot|Cat-a-lot]]: Copying from [[Category:20th-century Calvinist and Reformed theologians]] to [[Category:21st-century Calvinist and Reformed theologians]]
2013-02-03T20:01:58+00:00,536403381,535028701,0,Ijkcomputer,Non-aggression principle,"/* Non-physical violence */  H.L. Mencken changed from ""libertarian writer"" to ""writer who influenced libertarians""."
2010-10-16T11:53:04+00:00,391042875,387735539,0,138.251.30.10,N. T. Wright,
2008-09-22T20:43:13+00:00,240289097,240143951,0,Sardanaphalus,Non-aggression principle,"updating link, possibly some formatting/rephrasings,  using [[Project:AutoWikiBrowser|AWB]]"
2013-12-02T23:41:35+00:00,584282435,584281828,0,Nevadafalls,Out of the Silent Planet,/* Publication history */
2009-07-05T03:07:15+00:00,300342515,289705763,0,MastiBot,Paleolibertarianism,robot Removing: [[el:Παλαιοφιλευθερισμός]]
2009-03-17T15:52:05+00:00,277884357,276868993,0,Stormerne,Perelandra,[[WP:UNDO|Undid]] revision 276868993 by [[Special:Contributions/71.194.255.131|71.194.255.131]] ([[User talk:71.194.255.131|talk]]) Vandalism
2013-06-27T19:42:34+00:00,561865507,553475183,0,John,Perelandra,"clean up, [[WP:MOSICON|deflag]], [[WP:OVERLINK|overlink]], replaced: [[English language|English]] → English, [[United Kingdom]] → United Kingdom using [[Project:AWB|AWB]]"
2008-10-15T05:50:36+00:00,245387592,245346850,0,Will Beback,Paleolibertarianism,/* Principles */ cite req
2013-06-27T19:42:25+00:00,561865488,560880815,0,John,Out of the Silent Planet,"clean up, [[WP:MOSICON|deflag]], [[WP:OVERLINK|overlink]], replaced: [[English language|English]] → English, [[United Kingdom]] → United Kingdom, [[Portugal]] → Portugal, [[France]] → France, [[Netherlands]] → Net using [[Project:AWB|AWB]]"
2006-10-04T15:55:26+00:00,79469445,79469277,0,Dntemp,Peter Kreeft,
2012-10-07T22:01:18+00:00,516537166,516536315,0,Legobot,Peter Thiel,BOT: Dating templates: {{external links}} (1)
2010-08-04T01:34:22+00:00,377041182,376017206,0,Scott Illini,Peter Thiel,add cat
2007-06-24T09:28:32+00:00,140273228,140115500,0,SmackBot,Peter Thiel,Date/fix the maintenance tags or gen fixes
2013-05-11T19:51:39+00:00,554635700,553139637,0,Victor Chmara,Peter Thiel,/* College and law school */
2010-12-28T00:42:30+00:00,404553329,403532831,0,Magentabanana,Peter Thiel,/* Life and career */
2006-09-03T01:24:14+00:00,73495957,73492240,0,Jossi,Peter van Inwagen,Reverted edits by [[Special:Contributions/Shadowthedog|Shadowthedog]] ([[User talk:Shadowthedog|talk]]) to last version by Davidlud
2009-10-01T18:42:55+00:00,317326608,317326504,0,NBeale,Peter van Inwagen,/* Career */  typo compatibilitm
2007-04-06T10:14:42+00:00,120700046,117305655,0,Jogers,Peter Thiel,"capitalization, Replaced: Thank You For Smoking → Thank You for Smoking  using [[Project:AWB|AWB]]"
2015-06-21T10:31:33+00:00,667909487,653404400,0,KasparBot,Peter Kreeft,embed {{Authority control}} with wikidata information
2016-02-08T08:36:33+00:00,703896102,700861515,0,120.150.60.104,Pink Moon,/* Reception and legacy */ Removed non-notable review source
2014-11-19T08:42:40+00:00,634507043,631527804,0,71.64.157.16,Pink Moon,/* Reception and legacy */
2013-03-17T10:30:27+00:00,544907856,539525247,0,Yobot,Prince Caspian,clean up / infobox parameter standardisation using [[Project:AWB|AWB]] (8976)
2011-02-06T21:45:39+00:00,412421884,412048428,0,Artemis-Arethusa,Prince Caspian,
2008-06-17T15:20:26+00:00,219938623,216959916,0,Morphh,Public choice,"Reordered and titled per [[WP:GTL]], copyedit"
2013-05-22T14:27:53+00:00,556272155,556218320,0,Daniel Cordoba-Bahle,Public choice,
2014-07-07T07:00:20+00:00,615915465,609900567,0,220.69.211.13,Rapid Action Battalion,
2013-11-09T00:56:12+00:00,580831523,580831440,0,Kkeefe75,Rapid Action Battalion,
2014-03-13T21:29:43+00:00,599491866,599471854,0,Xxanthippe,Scholasticism,Reverted [[WP:AGF|good faith]] edits by [[Special:Contributions/Dikaalnas|Dikaalnas]] ([[User talk:Dikaalnas|talk]]): Not economic. ([[WP:TW|TW]])
2009-01-24T15:48:17+00:00,266128039,265585889,0,Kiril Simeonovski,Scholasticism,
2014-08-21T22:59:21+00:00,622262101,622035165,0,Bgwhite,Scientology,[[WP:CHECKWIKI]] error fix #94. Stray ref tag. Do [[Wikipedia:GENFIXES|general fixes]] and cleanup if needed. - using [[Project:AWB|AWB]] (10370)
2015-10-30T21:56:15+00:00,688286460,673033530,0,209.242.149.240,Self-ownership,/* See also */
2012-05-29T16:19:42+00:00,494973270,471740044,0,Johnleemk,Scott Sumner,the Sumner critique
2010-02-11T22:30:21+00:00,343431559,343430987,0,187.13.71.23,Self-ownership,/* Criticism */
2008-10-24T04:07:42+00:00,247317775,240058309,0,JackofOz,Shadowlands (play),date linking is now deprecated @ WP:MOS + other tweaks
2013-05-10T22:38:18+00:00,554512618,548413349,0,John,Shadowlands (play),"clean up, [[WP:MOSICON|deflag]], [[WP:OVERLINK|overlink]], replaced: [[United States|American]] → American using [[Project:AWB|AWB]]"
2012-11-26T10:13:20+00:00,524929627,524929266,0,Polo,Scientology,Reverted edits by [[Special:Contributions/Candy996|Candy996]] ([[User talk:Candy996|talk]]) to last revision by HelenOnline ([[WP:HG|HG]])
2014-03-26T21:45:41+00:00,601415816,600557343,0,Tsaost,Sleeping with the Enemy,/* Remakes */
2011-05-10T01:28:08+00:00,428350367,428267688,0,AbsoluteGleek92,Sleeping with the Enemy,cleaned page
2014-03-24T17:09:36+00:00,601057726,577382780,0,GrahamHardy,Spirits in Bondage,unlink common terms
2011-02-21T09:22:36+00:00,415102115,400117592,0,Good Olfactory,Spirits in Bondage,added [[Category:Works published under a pseudonym]] using [[WP:HC|HotCat]]
2014-03-27T12:18:18+00:00,601496128,560757405,0,GrahamHardy,Studies in Words,caption
2009-12-17T14:43:53+00:00,332300541,306898659,0,SmackBot,Studies in Words,"remove Erik9bot category,outdated, tag and general fixes"
2014-03-27T22:01:34+00:00,601568422,589496423,0,GrahamHardy,Surprised by Joy,caption
2011-06-21T19:13:04+00:00,435509304,404256639,0,Fergananim,Surprised by Joy,/* External links */
2009-09-27T11:09:46+00:00,316470540,316451965,0,76.66.197.30,Talk:Independent Institute,/* Requested move */
2009-10-05T09:00:47+00:00,318009156,318009108,0,Skomorokh,Talk:Independent Institute,/* Requested move */ done
2008-01-01T08:10:14+00:00,181353260,163060181,0,218.208.205.154,Talk:Independent Institute,
2012-08-15T22:30:58+00:00,507600461,494348745,0,DGG,Talk:Independent Institute,political orientation
2013-08-15T18:30:40+00:00,568689406,568678681,0,Carlstak,Talk:Independent Institute,/* Clean up */
2015-01-15T18:54:12+00:00,642638853,642511201,0,Carlstak,Talk:Independent Institute,/* Climate Change */
2014-02-02T21:42:29+00:00,593640674,582633178,0,Vidmastb,Talk:Independent Institute,/* Tobacco Industry Section */
2007-10-08T10:32:16+00:00,163060181,163059997,0,SineBot,Talk:Independent Institute,"Signing comment by [[User:219.94.60.111|219.94.60.111]] - """""
2008-10-12T04:12:58+00:00,244710127,234235014,0,Gloriamarie,Talk:Independent Institute,added to WikiProject Organizations
2006-04-03T22:53:18+00:00,46825523,0,0,Dcljr,Talk:Independent Institute,two glowing assessments a bit much...
2008-08-25T23:15:56+00:00,234235014,220443661,0,EVCM,Talk:Independent Institute,{{WPLibertarianism|class=C|importance=High}}
2014-07-24T22:23:34+00:00,618335208,618325567,0,SPECIFICO,Talk:Independent Institute,/* Funding from Philip Morris */
2012-05-25T18:26:55+00:00,494348745,494348702,0,98.204.174.100,Talk:Independent Institute,/*  */
2015-09-14T08:43:53+00:00,680958190,642638853,0,Vidmastb,Talk:Independent Institute,"Vidmastb moved page [[Talk:The Independent Institute]] to [[Talk:Independent Institute]] over redirect: The organization dropped ""The"" from their name"
2014-07-22T21:41:44+00:00,618038054,618037899,0,The Four Deuces,Talk:Independent Institute,/* Funding from Philip Morris */
2014-10-29T01:51:18+00:00,631550660,618335208,0,Safehaven86,Talk:Independent Institute,/* Violations of WP:NPOV policy */ new section
2008-06-19T21:59:06+00:00,220443661,220440798,0,Stephan Schulz,Talk:Independent Institute,/* Lighthouse */ new section
2016-01-27T02:41:10+00:00,701874599,701539822,0,Carlstak,Talk:Independent Institute,/* Addition of Non-Neutral Point of View Material */
2016-02-01T03:47:46+00:00,702695795,701874599,0,Srich32977,Talk:Independent Institute,/* Addition of Non-Neutral Point of View Material */ comment
2013-08-07T06:26:41+00:00,567500971,562101801,0,Eugene-elgato,That Hideous Strength,slightly better word for this - it holds out as a scientific institute more than being alleged by any given party
2015-07-04T19:09:54+00:00,669952420,667223570,0,AnonMoos,The Abolition of Man,
2009-01-31T13:00:42+00:00,267612102,267611702,0,Student7,The Abolition of Man,/* Influence in popular culture */ supplied footnote
2011-04-27T23:52:45+00:00,426296646,426296633,0,Glane23,The Black Hole (1979 film),Reverted edits by [[Special:Contributions/72.230.177.175|72.230.177.175]] ([[User talk:72.230.177.175|talk]]) to last revision by Giants27 ([[WP:HG|HG]])
2013-03-08T02:46:07+00:00,542735093,542733553,0,Cerabot~enwiki,The Black Hole (1979 film),Task 1: Dating templates: {{citation needed}} (1). ([[User:Cerabot/Run/Task 1|bot]])
2013-04-28T02:59:44+00:00,552512168,552509695,0,Ramaksoud2000,The Black Hole (1979 film),Reverted [[WP:AGF|good faith]] edit(s) by [[Special:Contributions/76.102.79.49|76.102.79.49]] using [[WP:STiki|STiki]]
2014-11-18T09:55:07+00:00,634355333,632994364,0,Mezigue,The Black Hole (1979 film),/* Production */
2009-03-15T07:53:46+00:00,277360483,277352836,0,WickerGuy,The Chronicles of Narnia,[[WP:UNDO|Undid]] revision 277352836 by [[Special:Contributions/66.74.131.101|66.74.131.101]] ([[User talk:66.74.131.101|talk]])This is a BS edit. Of course it borrows from Christian themes.
2012-08-31T03:00:47+00:00,510048347,510047695,0,Lowercase sigmabot,The Chronicles of Narnia,Adding protection templates) (bot
2015-01-01T23:27:47+00:00,640575998,640557529,0,81.153.182.159,The Chronicles of Narnia (film series),
2012-05-01T19:47:30+00:00,490178296,489857557,0,Hucz,The Chronicles of Narnia (film series),
2015-09-14T20:23:07+00:00,681041219,681040807,0,66.87.115.184,The Chronicles of Narnia: Prince Caspian,
2008-01-02T11:40:58+00:00,181585110,181583275,0,83.10.149.178,The Chronicles of Narnia: Prince Caspian,pl
2007-05-27T21:09:19+00:00,133930644,129836087,0,71.108.208.36,The Inklings,/* Related reading */
2015-03-19T21:14:37+00:00,652129602,645038993,0,86.186.144.58,The Inklings,fix URL for JIS
2007-08-16T19:31:56+00:00,151664312,150957818,0,Zahakiel,"The Lion, the Witch and the Wardrobe",/* Commentary */ tagging section as unsourced
2012-01-30T19:37:17+00:00,474084407,474084399,0,ClueBot NG,"The Lion, the Witch and the Wardrobe","Reverting possible vandalism by [[Special:Contributions/205.118.178.63|205.118.178.63]] to version by 90. False positive? [[User:ClueBot NG/FalsePositives|Report it]]. Thanks, [[User:ClueBot NG|ClueBot NG]]. (848774) (Bot)"
2006-10-10T01:37:45+00:00,80531706,80531449,0,69.235.192.129,The Pilgrim's Regress,
2014-06-14T22:21:52+00:00,612941793,610025694,0,86.20.22.146,The Pilgrim's Regress,
2011-10-05T20:47:54+00:00,454129639,453650525,0,Eldamorie,The Screwtape Letters,/* Cultural references */  rm has
2014-03-19T19:00:17+00:00,600344997,594877729,0,86.186.252.184,Theodicy,
2013-10-31T04:07:07+00:00,579567273,579536009,0,Odysseus1479,The Space Trilogy,/* Influences and approach */ split quotes that were amalgamated in January; fix per sources
2011-07-26T12:30:50+00:00,441521802,440578668,0,DancingPhilosopher,Theodicy,Undid vandalism 440578668 by [[Special:Contributions/75.110.72.145|75.110.72.145]] ([[User talk:75.110.72.145|talk]])
2015-04-20T15:53:19+00:00,657343048,657342772,0,BranStark,The Screwtape Letters,Reverted edits by [[Special:Contributions/Jobboy18|Jobboy18]] ([[User talk:Jobboy18|talk]]) to last revision by ClueBot NG ([[WP:HG|HG]])
2008-03-28T09:10:35+00:00,201535936,198955605,0,Steve Smith,The Space Trilogy,/* Glossary */ removing link to redirect
2012-03-18T14:02:55+00:00,482541424,481700114,0,Bovineboy2008,This Is the End,"add sort key, can't use imdb as a source"
2013-07-28T22:29:12+00:00,566205304,566143648,0,Ylee,This Is the End,"Undid revision 566058438 by [[Special:Contributions/Stargrl|Stargrl]] ([[User talk:Stargrl|talk]]) Unnecessary; important thing is that there was a misunderstanding, not why"
2013-03-08T15:45:37+00:00,542829664,542817799,0,Antique Rose,Thomas Aquinas,[[Help:Reverting|Reverted]] edits by [[Special:Contributions/67.43.18.246|67.43.18.246]] ([[User talk:67.43.18.246|talk]]) to last version by Arjayay
2013-04-16T23:55:36+00:00,550724946,550672666,0,65.60.194.11,Thomas Aquinas,"/* Paris, Cologne, Albert Magnus, and first Paris regency (1245–1259) */"
2014-09-22T09:21:50+00:00,626594722,625428340,0,Omnipaedista,Tibor Machan,per [[WP:CREDENTIAL]]
2015-06-22T12:52:20+00:00,668112396,667899730,0,John of Reading,Tibor Machan,Fixed the cite error: restored half a reference that was deleted in the updates on 17 June
2010-03-22T23:57:10+00:00,351466940,351003554,0,76.166.178.92,Till We Have Faces,
2010-05-16T18:25:31+00:00,362471990,362471710,0,DBaba,Tumult of Aranjuez,/* Prelude */
2009-04-19T20:26:14+00:00,284870695,284869379,0,GreenGourd,Till We Have Faces,/* In popular culture */ (copy editing and asked for citation)
2007-03-13T00:56:18+00:00,114686267,107363189,0,Anarchristian,Tibor Machan,"/* External links */ I added link to page on my site holding Machan's CV, which he provided to me"
2013-07-06T03:37:26+00:00,563058509,563057527,0,King of Hearts,User talk:Jurtal,/* Blocked as a sockpuppet */ scan ID
2015-09-14T19:55:44+00:00,681037332,563058509,0,Sfan00 IMG,User talk:Jurtal,Notification: tagging for deletion of [[File:The Logo of The Independent Institute.png]]. ([[WP:TW|TW]])
2006-09-05T07:27:53+00:00,73905980,73893432,0,Pollinator,User talk:Shadowthedog,final warning on linkspamming - before block
2011-07-05T11:57:11+00:00,437859370,437750806,0,EdwardsBot,User talk:Woohookitty,/* The Signpost: 4 July 2011 */ new section
2015-11-10T01:13:38+00:00,689891229,689790903,0,Lowercase sigmabot III,User talk:Woohookitty,Archiving 2 discussion(s) to [[User talk:Woohookitty/Archive18]]) (bot
2009-11-06T19:43:00+00:00,324330024,324275278,0,Bluedogtn,User talk:Woohookitty,/* MLB Championship team navboxes? */ new section
2011-11-15T20:38:46+00:00,460835069,460694073,0,MiszaBot III,User talk:Woohookitty,Archiving 2 thread(s) (older than 7d) to [[User talk:Woohookitty/Archive17]].
2013-09-25T01:57:27+00:00,574404425,564668158,0,74.134.29.161,Vernon L. Smith,
2010-06-24T07:55:00+00:00,369876862,369391616,0,Bkalafut,Vernon L. Smith,/* External links */  the second extremely notable omission from said category
2007-10-12T07:45:37+00:00,163999218,163784408,0,Liftarn,Vernon L. Smith,[[WP:UNDO|Undid]] revision 163784408 by [[Special:Contributions/Vision Thing|Vision Thing]] ([[User talk:Vision Thing|talk]])
2012-03-24T22:11:37+00:00,483750797,480276492,0,Helpful Pixie Bot,Vernon L. Smith,ISBNs (Build J/)
2015-10-02T15:22:44+00:00,683795698,683794899,0,2600:1012:B169:58BA:F53A:84CA:E044:C913,Vernon L. Smith,Correction update
2014-06-15T15:25:49+00:00,613022522,607972608,0,Miszatomic,Vernon L. Smith,{{Wikiquote}}
2009-01-31T01:10:34+00:00,267518185,267517912,0,NickiNor,Wikipedia:Sandbox,
2009-02-02T03:04:35+00:00,267963767,267962516,0,211.24.133.98,Wikipedia:Sandbox,
2013-07-05T22:17:04+00:00,563031099,562952550,0,Rschen7754,Wikipedia:Sockpuppet investigations/Shadowthedog,Archiving case to [[Wikipedia:Sockpuppet investigations/Shadowthedog/Archive]]
2012-08-17T20:03:46+00:00,507884756,505410883,0,Omnipaedista,William Alston,/* Bibliography */
2008-06-11T19:16:23+00:00,218689929,209641990,0,Eubot,William Alston,"Hatnote formatting, see [[User:Eubot/Hatnote formatting]]"
2014-02-25T17:57:10+00:00,597098909,597058487,0,78.145.221.19,William Lane Craig,/* Debates */
2015-08-12T13:57:26+00:00,675756788,675540511,0,Mann jess,William Lane Craig,Reverted 2 edits by [[Special:Contributions/Col8lok8|Col8lok8]] ([[User talk:Col8lok8|talk]]): Replied on talk. Let's discuss this and establish consensus for the change. Thanks! ([[WP:TW|TW]])
2015-07-16T22:13:49+00:00,671774591,671769996,0,189.223.105.186,World War Z (film),/* Music */
2013-02-27T11:07:17+00:00,540911234,528593725,0,Addbot,Álvaro Vargas Llosa,"[[User:Addbot|Bot:]] Migrating 5 interwiki links, now provided by [[Wikipedia:Wikidata|Wikidata]] on [[d:q251336]] ([[User talk:Addbot|Report Errors]])"
2014-09-15T18:20:51+00:00,625697025,563026441,0,Gabriel Yuji,Álvaro Vargas Llosa,wikilink
2011-03-08T13:45:31+00:00,417779176,409028237,0,Korruski,Álvaro Vargas Llosa,"/* Life */clean up, typos fixed: Posible → Possible using [[Project:AWB|AWB]]"
2008-07-16T07:24:25+00:00,225971365,218731308,0,Thijs!bot,Álvaro Vargas Llosa,"robot  Adding: [[ru:Льоса, Альваро]]"
2008-11-23T02:26:17+00:00,253515432,244329430,0,Indobrit,Álvaro Vargas Llosa,/* Life */
2011-05-24T16:42:43+00:00,430697400,417779176,0,24.138.44.225,Álvaro Vargas Llosa,
2013-05-04T15:29:56+00:00,553499391,553483203,0,Richard Harvey,Étienne Gilson,"Change to match institution spelling of ' Académie française ', replaced: French Academy → Académie française, [[Académie française|Académie française]] → [[Académie française]] using [[Project:AWB|AWB]]"
2015-05-12T05:31:04+00:00,661953014,660652345,0,Ser Amantio di Nicolao,Étienne Gilson,/* Further reading */add category using [[Project:AWB|AWB]]
2007-10-24T18:04:09+00:00,166792979,165661574,0,155.94.62.221,That Hideous Strength,"/* Characters in ""That Hideous Strength"" */"
2006-09-09T01:52:26+00:00,74637810,74570825,0,129.19.92.204,Adam Smith,/* Influence */
2008-02-21T02:59:07+00:00,192954905,192852483,0,Hrafn,Alister McGrath,/* Biography */ wikify
2008-01-22T17:27:45+00:00,186147935,186147865,0,81.77.40.244,Alister McGrath,
2010-07-11T20:50:44+00:00,372960627,343182409,0,99.14.96.153,An Experiment in Criticism,
2015-11-14T12:44:08+00:00,690598611,685070895,0,Toolkit-parakeet,A Grief Observed,"/* Summary */ Restructured ""Summary"", correcting grammar and syntax."
2010-10-27T16:39:55+00:00,393238622,393238220,0,JayJasper,Adam Smith,Undid revision 393238220 by [[Special:Contributions/163.150.137.103|163.150.137.103]] ([[User talk:163.150.137.103|talk]])
2009-05-14T15:34:08+00:00,289896757,289896180,0,193.10.51.205,Adam Smith,
2010-02-10T17:25:56+00:00,343182409,332777105,0,70.126.96.39,An Experiment in Criticism,"fixed ""Lewis suggest"" to ""Lewis suggests"""
2012-06-25T19:34:39+00:00,499331034,498431077,0,Hut 8.5,Adam Smith,rm copyvio from Britannica - see [[Wikipedia:Contributor_copyright_investigations/Kkm010]]
2012-04-09T16:20:24+00:00,486452362,484203897,0,2.98.244.124,Alister McGrath,
2007-02-02T00:10:50+00:00,104966888,104878238,0,MartinRobinson,A Grief Observed,Changed to original country of publication
2014-08-14T02:10:05+00:00,621149429,620812363,0,Mr. Stradivarius,Anarcho-capitalism,"remove the ""Criticisms"" section per protected edit request"
2009-12-03T23:12:02+00:00,329558881,327705032,0,Esperfulmo,Anarcho-capitalism,: ''See also [[Free-market anarchism]]''
2014-06-15T07:43:56+00:00,612983468,612615484,0,Mr. Stradivarius,Anarcho-capitalism,/* External links */ add DMOZ link per protected edit request by [[User:Srich32977]]
2006-12-11T14:27:43+00:00,93580528,93579728,0,Bubba hotep,Anarcho-capitalism,rm PoV of author
2013-04-08T19:16:19+00:00,549377186,548766078,0,207.126.99.161,Apologetics,/* Judaism */
2012-07-20T04:04:25+00:00,503224450,503224344,0,Gogo Dodo,Anarcho-capitalism,[[Help:Reverting|Reverted]] edits by [[Special:Contributions/IamrealyouarenotHAH|IamrealyouarenotHAH]] ([[User talk:IamrealyouarenotHAH|talk]]) to last version by 1exec1
2010-04-04T10:45:36+00:00,353887550,353773869,0,Usquam,Apologetics,Undid revision 353699467 by [[Special:Contributions/Ahlasunna|Ahlasunna]] ([[User talk:Ahlasunna|talk]]) incomplete sentence
2014-03-20T21:22:11+00:00,600506073,600505932,0,Truther2012,Anarcho-capitalism,
2009-11-21T06:52:11+00:00,327070575,326447949,0,Italomex,Apologetics,/* Christian apologetics */
2014-12-24T08:10:12+00:00,639446977,639219528,0,Jarble,Anarcho-capitalism,linking
2013-06-27T10:46:44+00:00,561804909,561804896,0,Yintan,Ayn Rand Institute,Reverted edits by [[Special:Contributions/117.192.221.183|117.192.221.183]] ([[User talk:117.192.221.183|talk]]) to last revision by Yintan ([[WP:HG|HG]])
2013-11-22T20:57:29+00:00,582868352,582864377,0,Binksternet,Austrian school of economics,Reverted [[WP:AGF|good faith]] edits by [[Special:Contributions/147.153.57.192|147.153.57.192]] ([[User talk:147.153.57.192|talk]]): Rv per [[WP:NOR]]. ([[WP:TW|TW]])
2007-11-09T06:01:45+00:00,170271404,169099850,0,SusanLesch,Ayn Rand Institute,wl
2015-03-01T16:45:51+00:00,649396499,648165386,0,Mike V,Austrian school of economics,Reverted edits by [[Special:Contribs/TakeItUpTheGreekEconomy|TakeItUpTheGreekEconomy]] ([[User talk:TakeItUpTheGreekEconomy|talk]]) to last version by Rjwilmsi
2012-02-18T11:12:45+00:00,477515681,476019699,0,140.247.246.197,Ayn Rand Institute,/* External links */ removed dead link
2014-12-19T00:16:15+00:00,638712135,638375839,0,BattyBot,Austrian school of economics,fixed [[Help:CS1 errors#bad_date|CS1 errors: dates]] to meet [[MOS:DATEFORMAT]] (also [[WP:AWB/GF|General fixes]]) using [[Project:AWB|AWB]] (10518)
2011-05-04T14:16:40+00:00,427411371,427408874,0,Nishidani,Apologetics,/* Jewish */
2014-12-03T03:08:13+00:00,636409616,636408203,0,Danski14,Austrian school of economics,/* Split among contemporary Austrians */ walter block's views on hayek
2015-08-24T19:21:04+00:00,677664497,677664311,0,Blue844098,Anarcho-capitalism,
2015-07-13T20:15:07+00:00,671302491,661705762,0,WhisperToMe,Ayn Rand Institute,/* External links */
2012-11-24T10:43:15+00:00,524628704,520716827,0,Rjwilmsi,Ayn Rand Institute,/* Other issues */Fix cite template names using [[Project:AWB|AWB]] (8683)
2014-04-25T16:05:53+00:00,605767127,603923414,0,58.6.244.241,Ayn Rand Institute,/* Other issues */
2015-02-10T22:54:28+00:00,646565455,646535141,0,Rationalobserver,C. S. Lewis,/* Illness and death */ c/e
2014-06-12T00:26:12+00:00,612569204,612214109,0,Dthomsen8,C. S. Lewis,/* top */ {{more footnotes|date=June 2014}} Removed has 91 inline citations
2008-02-21T15:58:15+00:00,193053849,190918730,0,67.103.12.155,Ayn Rand Institute,fixing 501(c)(3) link
2011-05-19T07:24:19+00:00,429844630,426908230,0,70.166.20.60,Charles Williams (British writer),/* Biography */
2012-04-16T20:34:19+00:00,487726153,487725516,0,ThaddeusB,Christian apologetics,/* Defense of miracles */ replace POV pushing see also w/relevant link
2006-08-02T20:42:23+00:00,67308048,67307928,0,Mickmaguire,Charles Williams (British writer),moved [[Charles Williams (Novelist)]] to [[Charles Williams (UK writer)]]: he was more than just a novelist
2008-12-04T10:16:50+00:00,255815905,255437159,0,Neutrality,Christian apologetics,
2008-02-23T22:19:46+00:00,193572237,193560865,0,Hrafn,Christian apologetics,[[WP:UNDO|Undid]] revision 193560865 by [[Special:Contributions/Stampsontheweb|Stampsontheweb]] ([[User talk:Stampsontheweb|talk]])Linkspam
2007-10-03T13:51:48+00:00,162012235,153483468,0,193.63.239.165,Charles Williams (British writer),/* Williams’ novels */ improve-en
2016-03-23T00:15:02+00:00,711456272,711253225,0,2600:1004:B06E:51FD:0:25:599E:9701,Christian philosophy,/* Contemporary philosophy */ Added links
2010-02-02T18:26:07+00:00,341519284,341450832,0,75.15.199.147,Christian philosophy,/* External links */ add [[Category:Christian terms]]
2010-11-28T13:01:22+00:00,399314369,398767771,0,JonHarder,Christian apologetics,/* External links */ Remove stale link•
2009-01-26T09:26:22+00:00,266492655,266492636,0,Shadowjams,Christian philosophy,Reverted 1 edit by [[Special:Contributions/62.49.8.242|62.49.8.242]] identified as [[WP:VAND|vandalism]] to last revision by [[User:SilvonenBot|SilvonenBot]]. ([[WP:TW|TW]])
2012-04-16T03:40:31+00:00,487609437,482574348,0,58.107.34.165,Charles Williams (British writer),
2011-08-12T21:52:26+00:00,444513100,444384785,0,EdelweissHazel,Ayn Rand Institute,
2009-01-04T19:16:34+00:00,261936380,259004352,0,99.140.237.132,Christian philosophy,
2011-08-26T03:27:48+00:00,446764495,446763867,0,HiLo48,Christianity,Reverted. Figures are way overblown anyway. That just makes it worse.
2014-05-17T14:28:30+00:00,608964291,608921016,0,Lipsio,Christianity,Reverted unexplained deletion of text and with it other obfuscating or non-constructive edits.
2009-09-15T18:38:06+00:00,314161575,314035864,0,170.123.4.230,Classical liberalism,[[WP:UNDO|Undid]] revision 314035864 by [[Special:Contributions/Introman|Introman]] ([[User talk:Introman|talk]]) POV pushing
2013-07-15T02:43:53+00:00,564306688,564219793,0,Eduen,Classical liberalism,/* Notes */
2015-12-22T04:37:30+00:00,696289590,696282132,0,Qzd,Classical liberalism,Reverted 1 edit by [[Special:Contributions/2601:192:8400:3A64:A844:4226:DA10:E20F|2601:192:8400:3A64:A844:4226:DA10:E20F]] identified as test/vandalism using [[WP:STiki|STiki]]
2013-02-06T22:36:35+00:00,536953058,535878735,0,MacTire02,Christianity,+gv
2011-11-01T21:13:51+00:00,458527371,457887573,0,All Is One,Christianity,internal link / alphabetized using [[en:User:Cacycle/wikEd|wikEd]]
2008-11-13T12:12:33+00:00,251542640,249748691,0,JoseREMY,Classical liberalism,/* Overview */ link corrected
2008-06-18T20:21:24+00:00,220215144,220214784,0,JayJasper,Classical liberalism,copyedit
2010-05-15T23:36:12+00:00,362343397,361856231,0,Auntof6,Classical liberalism,ISBN syntax (WP ck err 69) and/or general cleanup using [[Project:AWB|AWB]]
2015-05-20T11:15:27+00:00,663245571,660965218,0,SchroCat,Dorothy L. Sayers,
2006-07-08T21:16:38+00:00,62776828,41096061,0,64.119.4.33,Don Kates,
2013-10-09T07:22:07+00:00,576400175,576400131,0,128.62.73.162,Dorothy L. Sayers,/* Dante translations and commentaries */
2015-02-26T22:08:32+00:00,649000932,646219585,0,William Hitchens,Dorothy L. Sayers,/* Personal life */ corrected typo in cosmopolitan
2015-11-16T11:43:46+00:00,690901545,690353395,0,81.129.54.35,Dorothy L. Sayers,
2008-11-20T10:29:56+00:00,252961517,252961419,0,Closedmouth,Douglas Gresham,Reverted edits by [[Special:Contributions/87.38.45.7|87.38.45.7]] to last version by FlaBot ([[WP:HG|HG]])
2008-01-07T16:19:21+00:00,182751356,179885400,0,130.160.122.200,Douglas Gresham,
2011-07-11T02:20:43+00:00,438842318,438392075,0,Michael Hardy,Douglas Gresham,/* Personal life */ Deleted a needless word.
2013-03-03T21:42:03+00:00,541948926,540250123,0,Vdorta,Francisco Suárez,/* Philosophy of law */
2010-04-25T17:58:09+00:00,358242674,358242613,0,Attilios,Francisco Suárez,Removed [[:Category:People from Granada (city)]]; Adding category [[:Category:People from Granada]] (using [[WP:HOTCAT|HotCat]])
2013-11-12T15:09:18+00:00,581340325,578443120,0,Theol11111,Francisco Suárez,/* Life and career */
2007-03-29T19:13:43+00:00,118847928,118353582,0,Clicketyclack,Francisco Suárez,Fixing [[Wikipedia:Disambiguation pages with links|links to disambiguation pages]]  using [[Project:AWB|AWB]]
2008-01-03T07:16:43+00:00,181813147,179282721,0,Rsduhamel,Fred Singer,"/* Kuwait oil fires debate */ Removed link to ""S. Fred Singer"" that goes to a page that redirects back to this page."
2007-12-20T23:34:28+00:00,179282721,179273418,0,William M. Connolley,Fred Singer,rv: doesn't parse
2015-07-31T11:59:41+00:00,673924415,673924299,0,41.223.119.62,Free market,/* General principles as suggested by Njavwa */
2009-09-03T09:29:39+00:00,311626233,311363486,0,D'ohBot,Free will,robot Adding: [[hr:Slobodna volja]]
2014-06-27T19:17:46+00:00,614672575,609861914,0,84.56.11.68,Fred Singer,/* External links */
2011-06-26T05:43:43+00:00,436284369,436284291,0,Bongwarrior,Free market,[[Help:Reverting|Reverted]] edits by [[Special:Contributions/12.187.254.156|12.187.254.156]] ([[User talk:12.187.254.156|talk]]) to last version by CocuBot
2010-06-14T21:13:34+00:00,368044514,367146219,0,Jaydec,Free market,/* Gourmet coffee and electronics as examples of market forces in economics */ disam
2011-01-14T00:07:33+00:00,407752871,407751392,0,Jj1236,Free will,/* Incompatibilism */ ~~~~
2008-02-14T23:01:01+00:00,191522493,188366802,0,128.186.86.160,Free will,/* Other views */
2009-02-07T07:42:31+00:00,269090713,268866363,0,68.5.112.60,Friedrich Hayek,"/* Spontaneous order */  No, it's not ""controversial"""
2007-01-26T21:06:17+00:00,103462025,103415083,0,208.255.43.156,Friedrich Hayek,/* Social and political philosophy */
2008-11-22T21:09:44+00:00,253461349,252092078,0,200.153.226.66,Frédéric Bastiat,
2015-09-10T03:05:28+00:00,680318465,679853847,0,69.143.191.153,Frédéric Bastiat,"/* ""What is Seen and What is Unseen"" */"
2006-12-28T15:26:27+00:00,96942567,94013385,0,Anthon.Eff,Frédéric Bastiat,{{Template: History of economic thought}}
2012-11-28T07:50:48+00:00,525284293,524089100,0,2.221.47.59,Frédéric Bastiat,/* Works */
2007-08-14T10:52:23+00:00,151146770,151146703,0,Viator slovenicus,G. K. Chesterton,
2006-11-17T15:54:28+00:00,88438942,88438826,0,Kablammo,G. K. Chesterton,rvv
2013-06-21T23:40:49+00:00,560993192,560993081,0,DrBungle,Gary Habermas,Undid revision 560993081 by [[Special:Contributions/86.184.25.207|86.184.25.207]] ([[User talk:86.184.25.207|talk]])
2011-05-04T05:11:43+00:00,427356181,426199294,0,Showtime34,G. K. Chesterton,
2010-02-12T00:16:38+00:00,343450326,341120660,0,Mats33,Gary Habermas,
2007-08-17T12:44:06+00:00,151812501,138778516,0,129.215.123.53,Gary Habermas,replaced dead link
2007-04-01T20:55:14+00:00,119566978,117444617,0,Dsp13,George MacDonald,adding [[WP:PDATA|persondata]] using [[User talk:Dr pda/persondata.js|User:Dr pda/persondata.js]]
2014-07-01T19:07:13+00:00,615192674,614411649,0,Laurielfrodo7,George MacDonald,/* External links */ added MacDonald research collection web link
2010-10-04T15:13:50+00:00,388694101,383216127,0,RedBot,George MacDonald,robot Modifying: [[fa:جرج مک‌دونالد]]
2009-02-14T16:37:53+00:00,270686377,270193898,0,70.144.64.111,George MacDonald,/* Influence on pop culture */
2012-01-11T17:38:59+00:00,470823298,467056702,0,JustAGal,Independent Institute,"Disambiguated: [[Palgrave]] → [[Palgrave Macmillan]], [[Benjamin Franklin Award]] → [[Benjamin Franklin Awards]], [[Christopher Coyne]] → [[Christopher Coyne (professor)]]"
2009-09-24T15:00:44+00:00,315927017,302435322,0,68.20.6.41,Independent Institute,/* Awards */ Added some links that deserve pages.
2011-07-23T20:33:34+00:00,441058766,436199006,0,JohnDoe0007,Independent Institute,added to infobox
2012-04-03T17:38:08+00:00,485367420,479095073,0,149.162.115.199,Independent Institute,
2008-12-25T03:37:43+00:00,260002914,249578077,0,AndrewHowse,Independent Institute,Disambig links to dab page [[Philip Morris]] and general clean-up  using [[Project:AutoWikiBrowser|AWB]]
2006-11-16T16:06:35+00:00,88223117,84018569,0,Michael Hardy,Independent Institute,"""stub"" notices are not to remain in article whose length exceeds half that of [[War and Peace]]"
2006-06-25T01:47:49+00:00,60424391,57860706,0,Sajita,Independent Institute,
2009-01-30T22:20:41+00:00,267490305,260572518,0,67.34.239.50,Independent Institute,
2006-06-10T11:48:16+00:00,57860706,53514410,0,Precis,Independent Institute,"provided references, fixed excessive use of ""many"""
2016-01-07T16:41:00+00:00,698682903,685367209,0,78.146.221.41,Independent Institute,/* Climate change */
2007-03-14T07:49:22+00:00,115005128,115004871,0,Delirium,Individualism,another one
2007-01-06T11:30:34+00:00,98853836,98780606,0,JAnDbot,Individualism,robot  Adding: [[sk:Individualita]]
2013-03-15T08:57:05+00:00,544320526,543623426,0,108.38.59.50,Individualism,/* External links */
2013-06-26T23:41:17+00:00,561746232,561738260,0,A930913,Input–output memory management unit,Reverted [[WP:AGF|good faith]] edit(s) by [[Special:Contributions/Jurtal|Jurtal]] using [[WP:STiki|STiki]]
2006-05-27T20:30:55+00:00,55466147,55430129,0,Mike Rosoft,Input–output memory management unit,Marked for expansion
2016-01-05T20:22:09+00:00,698388467,698376379,0,Naraht,Input–output memory management unit,/* Published specifications */
2014-07-01T09:31:58+00:00,615130970,608320419,0,Screw0dog,J. P. Moreland,/* Career */ Grammatical fix for readability.
2011-11-10T21:26:43+00:00,460029928,441412358,0,Lmatt,Input–output memory management unit,clean up + manual editing using [[Project:AWB|AWB]]
2015-02-02T00:40:21+00:00,645235653,640187705,0,Prisencolin,J. P. Moreland,
2006-07-10T04:33:32+00:00,62992926,46509809,0,71.110.217.170,J. P. Moreland,
2014-01-06T12:40:18+00:00,589436083,589428048,0,De728631,J. R. R. Tolkien,plainlist to avoid html line breaks
2010-10-02T03:35:38+00:00,388215968,384364660,0,67.170.195.112,J. P. Moreland,
2007-02-07T21:21:46+00:00,106406076,106405692,0,Dan crook54,J. R. R. Tolkien,Reverted again woops :)
2014-02-12T02:15:45+00:00,595075588,594023898,0,Thnidu,J. R. R. Tolkien,Add respelling of ''Tolkien'': mispronunciation as {{IPAc-en|ˈ|t|ɒ|l|k|aɪ|n}} {{respell|TOL|kyn}} is not uncommon.
2007-08-05T12:23:33+00:00,149333657,149333603,0,Zereshk,James M. Buchanan,/* List of publications */
2009-11-28T03:58:14+00:00,328318941,326919616,0,JohnDoe0007,James M. Buchanan,color correction
2007-09-21T00:10:30+00:00,159284455,159284345,0,Oxymoron83,James M. Buchanan,Reverted 1 edit by [[Special:Contributions/65.96.36.144|65.96.36.144]] identified as [[WP:VAND|vandalism]] to last revision by [[User:Hwansokcho|Hwansokcho]].
2011-10-03T05:41:34+00:00,453648481,453648469,0,80.199.42.64,James M. Buchanan,
2014-09-13T19:52:09+00:00,625425485,624919732,0,Bender235,James M. Buchanan,"/* Approach to economic analysis */clean up; http->https or pr-URI, per [[Wikipedia:Village_pump_(policy)/Archive_111#As_WP_uses_HTTPS.2C_should_.28some.29_external_links.2C_too.3F|VPP]] using [[Project:AWB|AWB]]"
2014-11-01T13:22:10+00:00,632008726,630706413,0,Y-S.Ko,James M. Buchanan,
2013-12-16T11:17:21+00:00,586321337,584888946,0,Beaucouplusneutre,James M. Buchanan,/* List of publications */ wikilink The Calculus of Consent
2012-05-15T03:02:19+00:00,492631302,488741046,0,Pochsad,James M. Buchanan,/* Approach to economic analysis */
2012-02-03T23:03:36+00:00,474868387,474512061,0,C0w6oy,James M. Buchanan,/* See also */
2007-05-07T20:41:42+00:00,129044288,128645597,0,Gcm,James M. Buchanan,+[[:ca:James McGill Buchanan]]
2012-02-01T06:18:31+00:00,474351015,433796270,0,Polmandc,John C. Goodman,dead url replaced
2012-02-15T06:59:27+00:00,476965398,474351015,0,Polmandc,John C. Goodman,{when}
2007-12-19T02:24:19+00:00,178860895,177441433,0,BrendelSignature,John C. Goodman,added mention that it's a conservative think tank
2007-10-28T00:15:04+00:00,167530179,167414420,0,89.182.128.181,Libertarianism,"/* History */ Afaik Smith was supporting intervention when necessary, for instance against monopolies. Check source!"
2012-05-22T11:08:07+00:00,493807648,490769088,0,90.215.192.152,Libertarianism (metaphysics),/* Frankfurt's objection */
2010-12-16T16:29:19+00:00,402710925,400010846,0,Rich Farmbrough,Libertarianism,Date maintenance tags and general fixes: build 582: using [[Project:AWB|AWB]]
2010-09-28T06:19:51+00:00,387474929,387474657,0,Anachronist,Libertarianism,protected
2008-12-01T14:51:09+00:00,255209084,255003509,0,Nickptar,Libertarianism (metaphysics),[[WP:UNDO|Undid]] revision 255003509 by [[Special:Contributions/86.166.81.223|86.166.81.223]] ([[User talk:86.166.81.223|talk]]) unencyclopedic wording
2008-06-15T16:25:27+00:00,219515310,219380930,0,82.216.251.99,Libertarianism,/* The libertarian movement */
2009-01-31T06:56:25+00:00,267565709,267420545,0,130.127.98.88,Libertarianism (metaphysics),/* Free choice necessary for moral responsibility */
2013-08-08T13:50:33+00:00,567680295,567680185,0,50.75.52.119,List of political magazines,/* Currently published */
2006-11-27T08:42:03+00:00,90398064,90398051,0,70.36.27.189,List of political magazines,
2014-04-25T05:41:37+00:00,605708717,602878572,0,59.95.136.160,List of political magazines,"/*Organiser a weekly newspaper is now a magazine in India, hence added to the list*/"
2014-10-05T02:03:38+00:00,628282614,626864089,0,Anastigmat,Ludwig von Mises,/* Mises' life in Europe */
2009-06-20T22:58:24+00:00,297625721,296784554,0,MauritsBot,Ludwig von Mises,robot Adding: [[la:Ludovicus von Mises]]
2010-06-13T04:12:52+00:00,367714333,366937267,0,24.21.93.31,Ludwig von Mises,/* Famous Quotes */ Added quote from 'Omnipotent Government: Peace Schemes'
2009-12-15T03:50:23+00:00,331743952,331743911,0,Alansohn,Mere Christianity,Reverted edits by [[Special:Contributions/71.204.3.186|71.204.3.186]] to last revision by Andycjp ([[Wikipedia:Huggle|HG]])
2009-05-26T22:44:25+00:00,292543461,292065997,0,71.129.51.192,Mere Christianity,/* Christian Behaviour */
2011-03-01T15:00:09+00:00,416563556,416563449,0,82.26.0.138,Ludwig von Mises,/* Early life */
2009-06-07T00:08:52+00:00,294878925,294814803,0,WillMak050389,Mere Christianity,"[[WP:UNDO|Undid]] revision 294814803 by [[Special:Contributions/99.238.180.6|99.238.180.6]] ([[User talk:99.238.180.6|talk]]) nope, without the ""w"" is correct"
2012-05-27T14:40:05+00:00,494622222,494607264,0,Carolmooredc,Murray Rothbard,Undid revision 494477629 by [[Special:Contributions/Cohaerens|Cohaerens]] ([[User talk:Cohaerens|talk]])NOT a notable person; please explain at talk; do not edit war
2013-11-10T21:14:26+00:00,581090417,581090132,0,Freeknowledgecreator,Murray Rothbard,Copy edit. This should be a less cumbersome and awkward way of expressing things.
2012-09-09T20:53:48+00:00,511591756,509443063,0,173.14.91.77,Mere Christianity,/* The Case for Christianity */
2006-08-30T09:56:03+00:00,72789726,72260875,0,David L Rattigan,N. T. Wright,"/* Influence and controversy */  what does ""involved"" mean? This is very ambiguous - ""Auburn Avenue"" seems to be a controversy within US Reformed circles; Wright is an academic within NP on Paul"
2015-01-21T20:45:24+00:00,643567387,637614101,0,128.210.106.32,N. T. Wright,
2014-11-24T12:07:48+00:00,635228106,633938959,0,Marcocapelle,N. T. Wright,"removed apologists category, not a defining characteristic of this article"
2016-02-05T09:32:28+00:00,703406792,699612206,0,Graham11,N. T. Wright,Rm academic degree post-nominals per [[WP:POSTNOM]]
2007-03-13T17:56:07+00:00,114847044,114573014,0,Spurius Furius Fusus,Narnia (world),
2008-01-05T18:32:48+00:00,182346428,182046730,0,208.70.218.226,Narnia (world),/* General characteristics */
2007-01-09T06:07:23+00:00,99505765,99505672,0,24.86.12.105,Narnia (world),/* Other lands */ fix typo (delete extra period)
2015-04-17T03:42:21+00:00,656848714,651076452,0,Goustien,Narnia (world),/* Mythological creatures */ link
2007-11-01T09:28:34+00:00,168476578,166184346,0,CultureDrone,Narnia (world),/* Dwarfs */ link repair ([[Wikipedia:WikiProject Red Link Recovery|You can help!]])
2014-05-24T11:35:52+00:00,609932178,609883689,0,Stelmaris,Narnia (world),/* External links */ Deleted links which no longer worked
2007-07-04T04:31:19+00:00,142392062,142391943,0,58.172.122.223,Narnia (world),
2011-11-06T03:59:57+00:00,459244418,444739800,0,99.19.46.34,Natural Selection (2011 film),[[illegitimate]]
2006-10-09T19:58:32+00:00,80471262,79262389,0,128.235.249.80,Natural law,/* In contemporary philosophy */
2013-01-05T13:30:11+00:00,531445490,530630745,0,109.65.110.112,Narnia (world),/* General characteristics */
2009-07-14T15:47:52+00:00,302061335,300226410,0,LilHelpa,Narnia (world),it's -> its
2010-05-16T02:00:21+00:00,362362635,362285607,0,RJC,Natural law,Reverted [[WP:AGF|good faith]] edits by [[Special:Contributions/Gaia5074Q|Gaia5074Q]]; Link to political advocacy group. ([[WP:TW|TW]])
2006-09-08T05:44:46+00:00,74476159,74330963,0,Thraxas,Narnia (world),+bg
2013-06-10T23:39:18+00:00,559309097,558543647,0,70.82.117.183,Narnia (world),/* Dark Age */ cleaned up the poor English somewhat
2010-10-01T16:48:00+00:00,388125600,388125343,0,216.73.67.133,Natural law,/* Aristotle */
2007-11-26T18:35:07+00:00,173935122,172969298,0,77.96.232.145,Natural law,/* In contemporary jurisprudence */
2012-03-29T07:01:15+00:00,484501763,484501745,0,Klilidiplomus,Natural law,[[Help:Reverting|Reverted]] edits by [[Special:Contributions/90.2.78.26|90.2.78.26]] ([[User talk:90.2.78.26|talk]]) to last version by ClueBot NG
2011-06-20T21:38:13+00:00,435348446,435166618,0,R'n'B,Natural law,Fix [[WP:DPL|links]] to [[WP:D|disambiguation]] page [[Libertarian]]
2009-06-08T12:21:51+00:00,295159577,290412781,0,Histrion,Natural theology,wlink to article defining a priori
2006-12-01T00:12:49+00:00,91270989,91270922,0,129.210.144.19,Natural theology,/* Key proponents */
2007-01-29T01:49:18+00:00,103979877,103071582,0,Arch dude,Natural theology,/* Bridgewater Treatises */ bypass dab
2013-01-10T01:56:08+00:00,532291529,530186640,0,75.64.65.117,Nicholas Wolterstorff,/* Selected Writings */  added latest book
2010-10-16T01:21:25+00:00,390983360,383155291,0,RjwilmsiBot,Nicholas Wolterstorff,Adding Persondata using [[Project:AWB|AWB]] (7245)
2012-07-12T13:43:58+00:00,501883366,501882465,0,Nanobliss,Non-aggression principle,Francione ref added to 'non-humans'
2012-08-24T12:05:56+00:00,508922561,508909124,0,Guy Macon,Non-aggression principle,"Please provide a citation to a reliable source when changing ""Libertarian"" to ""Right-Libertarian"". Undid revision 508909124 by [[Special:Contributions/84.203.123.242|84.203.123.242]] ([[User talk:84.203.123.242|talk]])"
2015-09-14T16:50:07+00:00,681011837,674389479,0,Alejandrocaro35,Nicholas Wolterstorff,/* Endowed lectureships */
2012-04-23T17:49:34+00:00,488849886,488849488,0,Nanobliss,Non-aggression principle,/* Animal rights */
2010-10-25T21:51:52+00:00,392868667,392120375,0,Adamantius3,Out of the Silent Planet,Citation needed.
2014-09-29T21:21:21+00:00,627597882,627578057,0,A520,Out of the Silent Planet,Reverted 1 [[WP:AGF|good faith]] edit by [[Special:Contributions/207.179.75.146|207.179.75.146]] using [[WP:STiki|STiki]]
2008-03-17T21:51:40+00:00,198956085,197942450,0,Antonio Lopez,Out of the Silent Planet,/* External links */ removed link
2014-11-11T15:28:59+00:00,633390830,633389921,0,Fru1tbat,Out of the Silent Planet,Reverted 1 edit by [[Special:Contributions/50.201.50.210|50.201.50.210]] ([[User talk:50.201.50.210|talk]]): OR? ([[WP:TW|TW]])
2010-11-30T21:31:49+00:00,399799225,389251979,0,Redfalcon6,Paleolibertarianism,/* External links */ Correcting capitalization of book title
2009-12-04T12:50:14+00:00,329655713,329589614,0,JonHarder,Paleolibertarianism,rv spamming of a book
2011-09-01T00:55:59+00:00,447762486,438628100,0,24.102.164.239,Paleolibertarianism,updated the karen decoster quote links
2009-10-12T11:37:22+00:00,319405397,319371161,0,Terence.monteiro,Perelandra,typo correction
2013-12-11T21:49:59+00:00,585653006,584292663,0,71.253.203.217,Perelandra,/* Plot summary */
2012-04-23T11:35:04+00:00,488799254,487215596,0,RedBot,Peter Kreeft,"r2.7.2) (Robot: Adding [[ru:Крайфт, Питер]]"
2007-03-05T19:05:09+00:00,112866527,111530636,0,Corbmobile,Perelandra,
2013-05-04T11:43:02+00:00,553475183,553093984,0,Captain Pedant,Perelandra,/* Plot summary */  Ransom carved a memorial to Weston
2012-11-28T20:18:58+00:00,525405830,522040100,0,Delusion23,Peter Kreeft,amazing link farm...
2014-03-12T08:03:15+00:00,599256688,598365346,0,Pietro13,Peter Thiel,/* Support for political activism */
2013-01-26T09:07:45+00:00,534956346,534866314,0,Ptbotgourou,Peter Thiel,"r2.7.2) (Robot: Modifying [[ru:Питер Тиль]] to [[ru:Тиль, Питер]]"
2011-04-22T13:55:54+00:00,425337481,425262304,0,Yaris678,Peter Thiel,Reverted edit(s) by [[Special:Contributions/142.167.231.131|142.167.231.131]]  using [[WP:STiki|STiki]]
2015-12-13T18:20:47+00:00,695089140,694916863,0,99.236.96.176,Peter Thiel,"/* Early career */ Thiel clerked for 1 year, which is noted by Thiel in the reference. ""...I graduated from Stanford Law in ’92, when I was 24. I clerked for a year and then worked in New York."" 92 graduate, 93 start in New York leaves 1 year."
2015-09-26T22:26:15+00:00,682912452,677240059,0,Archie2013,Peter Thiel,"/* Seasteading */ Added comma after ""2011"""
2014-07-30T01:04:07+00:00,619056452,618543479,0,86.11.1.232,Peter Thiel,/* Other causes */ mentioned above in more depth
2010-02-10T16:17:59+00:00,343170970,341557489,0,Sandusky sweeper,Peter Thiel,/* Philanthropy */
2012-03-23T06:39:32+00:00,483490555,483451991,0,Steven Walling,Peter Thiel,[[Help:Reverting|Reverted]] edits by [[Special:Contributions/69.127.30.127|69.127.30.127]] ([[User talk:69.127.30.127|talk]]) to last version by CommonsDelinker
2014-04-03T01:44:58+00:00,602508549,601282949,0,Ontarioboy,Peter Thiel,added 2014 Forbes rankings
2009-08-24T21:46:44+00:00,309857758,309856757,0,Sandusky sweeper,Peter Thiel,/* Politics */
2015-01-30T22:10:48+00:00,644903652,644897447,0,Mcmatter,Peter Thiel,/* The Diversity Myth */ Removed in line external link
2014-04-13T10:15:41+00:00,603993201,598351391,0,Gerwoman,Peter van Inwagen,/* Books */
2016-02-26T04:23:42+00:00,706944677,704805402,0,Mcc1789,Peter van Inwagen,/* Career */
2012-04-28T05:32:06+00:00,489581100,470309992,0,76.170.72.60,Peter van Inwagen,/* Personal life */
2008-09-19T20:12:35+00:00,239642100,239100371,0,72.174.161.110,Pink Moon,/* External links */
2016-01-21T02:16:04+00:00,700861515,694661066,0,Progrockdude,Pink Moon,/* Accolades */
2007-02-13T05:55:15+00:00,107760943,103189898,0,JoeSmack,Pink Moon,"/* External links */ remove 2 copyvios, see [[Wikipedia:Copyrights]]"
2011-06-02T12:03:48+00:00,432162431,432129103,0,Fru1tbat,Prince Caspian,Undid revision 432129103 by [[Special:Contributions/76.180.238.15|76.180.238.15]] ([[User talk:76.180.238.15|talk]]) - irrelevant nav box
2013-07-19T22:25:06+00:00,564983402,561865352,0,GoingBatty,Prince Caspian,removed [[Category:Novels adapted into films]]; added [[Category:British novels adapted into films]] using [[WP:HC|HotCat]]
2014-06-25T12:26:50+00:00,614357243,614043538,0,Fru1tbat,Prince Caspian,removed unnecessary punctuation
2015-05-28T22:19:53+00:00,664481135,664480348,0,Lsommerer,Prince Caspian,Reverted 1 edit by [[Special:Contributions/67.214.31.185|67.214.31.185]] ([[User talk:67.214.31.185|talk]]): We use publication order here. ([[WP:TW|TW]])
2007-04-05T02:42:39+00:00,120395354,118777352,0,Zweifel,Public choice,/* Theory */
2010-10-09T02:55:03+00:00,389637525,389395196,0,70.179.96.10,Public choice,/* Criticism */ Added Buchanan and Tullock's view of their methodological limitations
2011-08-16T08:26:54+00:00,445119143,433553332,0,113.11.119.175,Rapid Action Battalion,
2012-01-19T15:09:59+00:00,472068347,468700087,0,Thomasmeeks,Public choice,"/*Refs.*/Tullock1989,Econ of SpecialPrivilege,2008""rent seeking""New Palgrave&Becker1983""...PressureGroups,""JPE,]+>Tullock,Becker1985,Krueger1974""PEofRentseeking""AER,Mitchell.., 1991""Models of InterestGroups...""Bhagwati,1982""DUPAct.""JPE→fn.5&6+links"
2012-01-24T04:58:29+00:00,472928065,462281459,0,157.155.192.69,Rapid Action Battalion,"/* Activities */ spelling, grammar"
2007-05-20T20:08:03+00:00,132282944,128638689,0,Laportechicago,Rapid Action Battalion,
2010-09-24T22:58:43+00:00,386836516,386836405,0,98.213.145.217,Scholasticism,Undid revision 386836405 by [[Special:Contributions/98.213.145.217|98.213.145.217]] ([[User talk:98.213.145.217|talk]])
2014-10-06T02:52:49+00:00,628422353,623599402,0,Dl2000,Rapid Action Battalion,[[MOS:DATEUNIFY]]
2014-12-16T03:28:49+00:00,638306186,634817677,0,Transphasic,Scholasticism,
2011-10-04T17:15:57+00:00,453932418,451090871,0,Ramurf,Scholasticism,corrected spelling of Leclercq; internal link: monastic
2007-07-10T19:00:37+00:00,143788366,142733414,0,207.112.26.81,Scholasticism,/* See also */
2012-02-08T18:52:12+00:00,475803894,475779728,0,Yikrazuul,Scientology,Undid revision 475779728 by [[Special:Contributions/AdamChirnside|AdamChirnside]] ([[User talk:AdamChirnside|talk]]) This is a cited information
2012-12-21T18:49:20+00:00,529148677,528493554,0,NestleNW911,Scientology,Added clarifying statement about Melton
2008-12-08T09:10:58+00:00,256590940,253937369,0,Ruslik0,Scientology,editprotect request (see talk page)
2012-07-26T22:21:28+00:00,504336402,504333521,0,NestleNW911,Scientology,Specify organization name
2010-04-15T23:43:34+00:00,356275883,351783977,0,72.152.219.149,Self-ownership,
2006-10-04T19:58:14+00:00,79509446,79066455,0,Nirvana2013,Self-ownership,Tidy up - already been sited in bold earlier in article
2013-11-03T19:46:36+00:00,580046694,580045916,0,VQuakr,Self-ownership,"Undid revision 580045916 by [[Special:Contributions/107.206.210.210|107.206.210.210]] ([[User talk:107.206.210.210|talk]]) rv, too editorial. We would need a third-party source connecting this passage to this concept."
2006-08-16T01:56:39+00:00,69931802,69478612,0,71.96.95.219,Self-ownership,
2008-06-03T13:34:03+00:00,216840131,216839796,0,Jordin986,Shadowlands (play),
2007-01-09T04:21:19+00:00,99490159,85723274,0,63.229.195.22,Shadowlands (play),
2015-01-16T19:46:38+00:00,642809230,642809091,0,208.185.170.74,Scott Sumner,
2015-11-11T06:31:44+00:00,690092294,678748153,0,190.137.214.65,Shadowlands (play),
2010-10-05T21:57:44+00:00,388971148,379833972,0,76.226.248.216,Shadowlands (play),/* See also */
2014-02-17T15:29:59+00:00,595885580,595885151,0,119.82.105.228,Sleeping with the Enemy,
2014-01-24T23:05:58+00:00,592243394,590764223,0,67.235.126.44,Sleeping with the Enemy,
2012-07-04T09:08:09+00:00,500622017,499201779,0,122.181.173.74,Sleeping with the Enemy,/* Remakes */
2010-05-06T16:25:20+00:00,360544615,348136810,0,SieBot,Sleeping with the Enemy,robot Modifying: [[ru:В постели с врагом]]
2010-12-02T13:19:24+00:00,400117592,309060172,0,141.241.199.124,Spirits in Bondage,
2009-05-26T08:33:51+00:00,292397546,292092748,0,D6,Spirits in Bondage,"fmt headline levels (to start with ""=="", [[WP:WikiProject Check Wikipedia|WP Check Wikipedia]] check #7"
2007-11-20T16:56:18+00:00,172727800,157263007,0,Kevinalewis,Spirits in Bondage,/* External links */ recat
2006-02-23T00:46:16+00:00,40788224,29689910,0,MakeRocketGoNow,Studies in Words,Category:1960 books
2015-10-30T04:42:34+00:00,688180664,688034997,0,BG19bot,Surprised by Joy,[[WP:CHECKWIKI]] error fix for #03.  Missing Reflist.  Do [[Wikipedia:GENFIXES|general fixes]] if a problem exists. - using [[Project:AWB|AWB]] (11700)
2013-06-20T14:50:47+00:00,560757405,530584998,0,147.226.133.92,Studies in Words,"The Unreference mark has been there since December 2009.  Since the article is a summary of a book, there needs to be a reason why the mark is there.  As there is none, I have removed it."
2010-12-26T05:59:43+00:00,404256639,394631943,0,Peacock.Lane,Surprised by Joy,/* Allusions of title */ format
2009-07-16T08:31:12+00:00,302380305,302290651,0,Kevinalewis,That Hideous Strength,moved to a publication history section
2006-04-06T12:54:36+00:00,47243807,47122452,0,Adam Keller,That Hideous Strength,/* A world where genocide is legitimate */
2006-09-24T18:12:44+00:00,77569119,77520643,0,Eldarone,That Hideous Strength,/* Connections with Tolkien's [[Middle-earth]] */ Dispute tag
2010-03-28T18:54:05+00:00,352581958,352551494,0,De728631,That Hideous Strength,this caption should remain
2007-12-19T23:46:09+00:00,179068658,174033993,0,Str1977,The Abolition of Man,
2011-04-27T16:49:08+00:00,426233022,426232929,0,BenMcLean,The Abolition of Man,/* Men without chests: a dystopian future */
2007-09-17T15:12:22+00:00,158506717,157285679,0,Jacksonic,The Black Hole (1979 film),/* Plot */
2006-08-03T22:34:22+00:00,67527268,61722252,0,Hraefen,The Abolition of Man,added disambig link
2010-04-15T14:43:06+00:00,356181079,356180519,0,Nifky?,The Black Hole (1979 film),Reverted 2 edits by [[Special:Contributions/199.164.68.176|199.164.68.176]] identified as [[WP:VAND|vandalism]] to last revision by [[User:Magnius|Magnius]]. ([[WP:TW|TW]])
2015-02-11T21:42:54+00:00,646705209,646705101,0,MagicatthemovieS,The Black Hole (1979 film),/* Reception */
2011-09-01T06:27:49+00:00,447806955,447735790,0,94.70.18.93,The Black Hole (1979 film),
2013-04-16T15:16:00+00:00,550653784,549484535,0,EJSawyer,The Black Hole (1979 film),"/* Remake */ spelling, BH/Tron parallels"
2011-03-05T19:38:58+00:00,417299280,414047251,0,TheMovieBuff,The Black Hole (1979 film),/* External links */
2010-08-07T17:46:18+00:00,377681131,376763824,0,Walter Görlitz,The Chronicles of Narnia,/* Music */ correcting formatting and grouping themes together.
2008-02-24T13:38:38+00:00,193694815,193694701,0,87.2.184.106,The Chronicles of Narnia,
2012-06-03T15:19:53+00:00,495782637,495119261,0,AdamDeanHall,The Black Hole (1979 film),Fixed problem.
2008-05-06T01:04:27+00:00,210464948,210462723,0,Lsommerer,The Chronicles of Narnia,[[WP:UNDO|Undid]] revision 210462723 by [[Special:Contributions/72.150.63.135|72.150.63.135]] ([[User talk:72.150.63.135|talk]]) rvv
2013-10-23T09:59:26+00:00,578383871,577728364,0,67.170.169.30,The Chronicles of Narnia (film series),not a studio
2010-01-28T09:27:50+00:00,340500031,339491275,0,24.5.233.251,The Chronicles of Narnia (film series),/* Box office */
2011-11-16T06:15:34+00:00,460906106,460905698,0,Elizium23,The Chronicles of Narnia (film series),Reverted 1 edit by [[Special:Contributions/110.33.6.209|110.33.6.209]] ([[User talk:110.33.6.209|talk]]): Nonsensical order. ([[WP:TW|TW]])
2011-05-13T22:03:13+00:00,428991798,428813815,0,72.49.100.81,The Chronicles of Narnia: Prince Caspian,/* Pevensies */
2011-05-12T03:12:13+00:00,428691472,428687890,0,SummerPhD,The Chronicles of Narnia (film series),/* The Magician's Nephew */ -unsourced
2011-07-26T17:06:18+00:00,441562566,441561490,0,Stubies0210,The Chronicles of Narnia: Prince Caspian,
2011-07-05T18:48:28+00:00,437913931,437705652,0,Doniago,The Chronicles of Narnia: Prince Caspian,[[WP:RBK|Reverted]] edits by [[Special:Contributions/Captain Pedant|Captain Pedant]] ([[User talk:Captain Pedant|talk]]) to last version by Kwamikagami overdetailed
2006-10-03T16:24:01+00:00,79270275,77246576,0,MartinRobinson,The Inklings,
2008-09-03T19:55:23+00:00,236089737,232845400,0,67.140.192.138,The Inklings,they where in the lewises dorm till the late 1939's
2015-06-17T14:03:45+00:00,667350792,667207750,0,Philg88,The Inklings,Philg88 moved page [[Inklings (group)]] to [[Inklings]]: Requested at [[WP:RM]] as uncontroversial ([[Special:Permalink/667335311|permalink]])
2010-02-25T02:16:04+00:00,346215189,345054362,0,The Man in Question,The Inklings,
2015-09-25T17:46:22+00:00,682736223,680723582,0,Taeyebar,"The Lion, the Witch and the Wardrobe",/* External links */
2008-10-23T01:32:52+00:00,247081938,246758844,0,Jotterbot,"The Lion, the Witch and the Wardrobe","robot  Modifying: [[ru:Лев, колдунья и платяной шкаф]]"
2007-10-28T03:05:31+00:00,167555112,167492660,0,Poromiami,"The Lion, the Witch and the Wardrobe",
2011-04-23T08:59:14+00:00,425470047,424390703,0,EmausBot,"The Lion, the Witch and the Wardrobe","r2.6.4) (robot Modifying: [[simple:The Lion, the Witch, and the Wardrobe]]"
2011-06-03T22:47:28+00:00,432432557,432432263,0,79.176.126.54,The Pilgrim's Regress,
2010-10-19T06:55:48+00:00,391597143,388921983,0,Gaius Cornelius,The Pilgrim's Regress,"Fix dashes, non-breaking spaces etc and tidy using [[Project:AWB|AWB]]"
2008-04-20T02:58:59+00:00,206814124,194058147,0,Evaunit666,The Pilgrim's Regress,
2015-10-09T22:15:06+00:00,684962319,684910447,0,Mr Stephen,The Screwtape Letters,"clean up, straight quotes, ellipsis format, dashes in year ranges, ISBN format using [[Project:AWB|AWB]]"
2013-12-09T01:19:39+00:00,585211293,585193513,0,George100,The Screwtape Letters,Reverted 1 edit by [[Special:Contributions/71.254.191.41|71.254.191.41]] ([[User talk:71.254.191.41|talk]]): Improper spelling. ([[WP:TW|TW]])
2008-04-22T03:06:18+00:00,207276627,206415577,0,Leroyinc,The Screwtape Letters,
2011-11-02T14:22:24+00:00,458639882,456711708,0,208.65.73.105,The Space Trilogy,/* Parallels with other works */
2010-07-25T10:26:54+00:00,375349920,370361884,0,75.87.191.77,The Space Trilogy,/* Eldila */
2016-01-04T19:43:31+00:00,698223916,697852213,0,BD2412,The Space Trilogy,"minor fixes, mostly [[Wikipedia:Disambiguation pages with links|disambig links]] using [[Project:AWB|AWB]]"
2010-07-01T07:31:18+00:00,371162217,368904889,0,203.223.237.155,Theodicy,Undid revision 363552210 by [[Special:Contributions/Ht686rg90|Ht686rg90]] ([[User talk:Ht686rg90|talk]])
2014-06-22T02:35:01+00:00,613882860,613606904,0,Editor2020,Theodicy,/* Free will defense */ format
2009-09-04T20:09:58+00:00,311891557,311841962,0,71.249.224.97,Theodicy,
2015-09-04T19:17:25+00:00,679473730,677469228,0,Neelix,Theodicy,removed [[Category:Problem of evil]] using [[WP:HC|HotCat]] Removed redundant category
2013-05-31T05:43:59+00:00,557636912,557608197,0,Rusted AutoParts,This Is the End,"Reverted to revision 557429812 by Koala15: It's not released in any world theatre, this was a screening.. ([[WP:TW|TW]])"
2014-02-10T14:05:28+00:00,594826709,594795530,0,STATicVapor,This Is the End,Reverted [[WP:AGF|good faith]] edits by [[Special:Contributions/122.62.91.181|122.62.91.181]] ([[User talk:122.62.91.181|talk]]). ([[WP:TW|TW]])
2014-12-17T19:00:06+00:00,638532637,638348935,0,68.195.115.69,This Is the End,
2013-02-11T23:04:07+00:00,537779999,537774474,0,Darkwarriorblake,This Is the End,Reverted 1 edit by [[Special:Contributions/86.40.216.66|86.40.216.66]] ([[User talk:86.40.216.66|talk]]): Unsourced. ([[WP:TW|TW]])
2010-01-21T15:33:38+00:00,339162860,339153183,0,TobeBot,Thomas Aquinas,robot Adding: [[ckb:توماس ئەکویناس]]
2015-12-17T16:34:20+00:00,695655304,695643460,0,William M. Connolley,Thomas Aquinas,Undid revision 695643460 by [[Special:Contributions/Evolutionist79|Evolutionist79]] ([[User talk:Evolutionist79|talk]]) per talk
2011-10-26T22:29:39+00:00,457563529,457545213,0,MJO,Thomas Aquinas,/* Biography */
2007-03-02T18:53:14+00:00,112130752,111939284,0,RoboServien,Thomas Aquinas,robot  Adding: [[nds-nl:Thomas van Aquino]]
2007-09-26T14:30:20+00:00,160474461,154216167,0,Lumidek,Tibor Machan,"global warming skeptic, sentence and reference added, plus category"
2008-06-03T20:53:58+00:00,216924034,212122798,0,Feelinabsurd,Tibor Machan,/* External links */
2014-07-27T17:17:15+00:00,618696024,578369752,0,Magioladitis,Tibor Machan,"/* Life */Replace unicode entity nbsp for character [NBSP] (or space)  per [[WP:NBSP]] + other fixes, replaced: → using [[Project:AWB|AWB]] (10331)"
2010-10-26T21:07:04+00:00,393069648,391553488,0,149.162.112.98,Tibor Machan,
2010-08-19T14:07:29+00:00,379781188,379777813,0,Academic38,Tibor Machan,"The word ""genius"" does not appear at all in the source listed, and he does not call Parfit a ""hack"""
2010-05-25T22:18:11+00:00,364193527,351702559,0,82.114.94.37,Tibor Machan,
2015-03-08T07:43:13+00:00,650415780,641209394,0,67.249.188.64,Till We Have Faces,
2012-05-20T22:08:27+00:00,493569719,493569485,0,Br'er Rabbit,Till We Have Faces,formatting: heading-style (using [[User:Cameltrader#Advisor.js|Advisor.js]])
2012-02-16T00:00:11+00:00,477098689,477048999,0,Laboris Dulcedo,Till We Have Faces,Disambiguated: [[Psyche]] → [[Cupid and Psyche]] using [[tools:~dispenser/view/Dab_solver|Dab solver]]
2012-12-19T22:12:09+00:00,528865293,528848926,0,94.224.219.197,Till We Have Faces,Correct French link
2006-04-04T07:33:38+00:00,46887031,35040315,0,YurikBot,Tumult of Aranjuez,robot  Adding: [[pt:Motim de Aranjuez]]
2007-10-13T18:07:06+00:00,164322489,164278900,0,Thumperward,User talk:Woohookitty,comment
2011-05-16T02:03:18+00:00,429326486,428628147,0,MessageDeliveryBot,User talk:Woohookitty,/* ''The Wikifier'': March 2011 */ ([[User:MessageDeliveryBot/1|Bot]]) Delivering message from [[Wikipedia:WikiProject Wikify|WikiProject Wikify]]
2015-04-10T02:38:43+00:00,655773200,655450847,0,MediaWiki message delivery,User talk:Woohookitty,/* The Signpost: 08 April 2015 */ new section
2010-01-23T02:05:45+00:00,339462342,338987104,0,Zweifel,User talk:Woohookitty,Single login
2010-01-27T10:45:43+00:00,340311392,338066565,0,210.177.66.30,Vernon L. Smith,/* References */
2010-11-30T00:52:51+00:00,399620871,397457745,0,190.21.152.250,Vernon L. Smith,added hayek
2011-06-23T14:56:04+00:00,435821105,431308037,0,Barkeep,Vernon L. Smith,/* External links */ cleanup EL
2009-09-19T02:30:24+00:00,314841815,313595021,0,219.75.15.100,Vernon L. Smith,/* Academic career */
2007-04-22T05:46:47+00:00,124798503,114608765,0,Sajita,Vernon L. Smith,link to International Foundation for Researchin Experimental Economics
2011-03-20T18:53:39+00:00,419838358,419724116,0,ArthurBot,Vernon L. Smith,r2.6.3) (robot Adding: [[cs:Vernon L. Smith]]
2012-04-03T19:27:53+00:00,485383489,485383113,0,90.197.111.52,Wikipedia:Sandbox,
2003-01-11T04:56:14+00:00,561065825,561057062,0,128.193.4.98,Wikipedia:Sandbox,
2013-08-23T10:00:12+00:00,569842109,569841228,0,Lowercase sigmabot II,Wikipedia:Sandbox,Clearing sandbox) (bot
2008-09-20T17:50:11+00:00,239822679,239822012,0,SoxBot IV,Wikipedia:Sandbox,Clearing the sandbox ([[WP:BOT|BOT]] EDIT)
2015-01-21T06:38:35+00:00,643483843,642253519,0,Aboutmovies,William Alston,"removed [[Category:People from Shreveport, Louisiana]]; added [[Category:Writers from Shreveport, Louisiana]] using [[WP:HC|HotCat]]"
2010-02-27T06:04:57+00:00,346639914,344292859,0,41.244.142.210,William Lane Craig,
2013-01-31T13:01:21+00:00,535854289,534292637,0,Graham87,William Alston,"1 revision from [[:nost:William Alston]]: import old edit, see [[User:Graham87/Import]]"
2007-01-15T21:29:01+00:00,100953777,100953644,0,Machinephilosophy,William Lane Craig,/* Education and career */
2006-06-14T17:26:01+00:00,58609113,57108465,0,Ken Gallager,William Lane Craig,/* Education and Career */ disambig Deerfield
2012-05-20T18:13:29+00:00,493535378,492266273,0,Bkwillwm,World War Z (film),/* Sequels */ fix syntax
2009-09-14T02:46:21+00:00,313719754,313641463,0,140.103.194.159,William Alston,
2009-10-11T23:21:12+00:00,319324336,319147700,0,Karljoos,Álvaro Vargas Llosa,{{Spanish name 2|Vargas|Llosa}}
2012-06-15T23:37:13+00:00,497792596,490997392,0,Waacstats,Álvaro Vargas Llosa,Persondata
2007-11-15T09:06:09+00:00,171628168,156372464,0,Hu12,Álvaro Vargas Llosa,rmvd multi article linkspam posted by an individual associated with the organization see [[WP:SPAM]] and [[WP:COI]]
2006-07-28T17:09:50+00:00,66378173,66361121,0,Argyriou,Álvaro Vargas Llosa,fix misleading POV language
2006-11-08T21:58:11+00:00,86578896,85973279,0,Rich Farmbrough,Álvaro Vargas Llosa,ISBN formatting/gen fixes  using [[WP:AWB|AWB]]
2009-02-25T18:44:36+00:00,273241282,269242167,0,156.98.14.252,Álvaro Vargas Llosa,/* Life */ Internal link Carlos Alberto Montaner
2012-05-17T12:59:22+00:00,493019853,490154928,0,Mouse ABC,Étienne Gilson,/* In translation */ Added fifteen works to this list in the existing bibliographic style.
2006-12-09T09:42:39+00:00,93121745,90710600,0,FlaBot,Étienne Gilson,robot  Adding: [[sk:Étienne Gilson]]
2009-12-06T10:27:55+00:00,330039578,327830179,0,M-le-mot-dit,Étienne Gilson,[[:en:User:NicoV/Wikipedia Cleaner/Documentation|WikiCleaner]] 0.98 - Repairing link to disambiguation page - [[Wikipedia:Disambiguation pages with links|You can help!]]
2010-07-30T19:46:03+00:00,376311940,375261158,0,Cobaltcigs,Étienne Gilson,
