timestamp,revid,parentid,sock,user,page,message
2006-06-26T03:31:05+00:00,60597018,60596951,1,RJII,User talk:RJII,
2006-06-26T03:30:22+00:00,60596951,60596891,1,RJII,User talk:RJII,
2006-06-26T03:29:45+00:00,60596891,60591200,1,RJII,User talk:RJII,/* Copyright problems with  Image:Profit&Loss.jpeg */
2006-06-25T19:40:56+00:00,60530381,60499513,1,RJII,User talk:RJII,/* Copyright problems with  Image:Profit&Loss.jpeg */
2006-06-25T08:20:51+00:00,60464069,60462781,1,RJII,User talk:RJII,/* So what's next then? */
2006-06-25T07:54:20+00:00,60462106,60462046,1,RJII,User talk:RJII,/* Question to Adminstrators about the block */
2006-06-25T07:53:29+00:00,60462046,60462025,1,RJII,User talk:RJII,/* Question to Adminstrators about the block */
2006-06-25T07:53:14+00:00,60462025,60458467,1,RJII,User talk:RJII,/* Question to Adminstrators about the block */
2006-06-25T06:38:01+00:00,60455925,60455391,1,RJII,User talk:RJII,/* Question to Adminstrators about the block */
2006-06-25T06:31:54+00:00,60455391,60453564,1,RJII,User talk:RJII,/* Copyright problems with  Image:Profit&Loss.jpeg */
2006-06-25T06:12:22+00:00,60453564,60434999,1,RJII,User talk:RJII,
2006-06-24T20:58:25+00:00,60387930,60387862,1,RJII,User talk:RJII,/* Blocked */
2006-06-24T20:56:29+00:00,60387696,60387601,1,RJII,User talk:RJII,/* Blocked */
2006-06-24T20:55:49+00:00,60387601,60387499,1,RJII,User talk:RJII,/* Blocked */
2006-06-24T20:54:58+00:00,60387499,60387325,1,RJII,User talk:RJII,/* Blocked */
2006-06-24T20:24:50+00:00,60383591,60383326,1,RJII,User talk:RJII,/* So what's next then? */
2006-06-24T20:17:40+00:00,60382628,60381462,1,RJII,Talk:Objectivism,"/* No academic source for ""philosophy"" */"
2006-06-24T20:16:03+00:00,60382401,60382224,1,RJII,User talk:RJII,/* So what's next then? */
2006-06-24T20:14:49+00:00,60382224,60382095,1,RJII,User talk:RJII,/* So what's next then? */
2006-06-24T20:14:02+00:00,60382095,60381904,1,RJII,User talk:RJII,/* So what's next then? */
2006-06-24T20:12:35+00:00,60381904,60381858,1,RJII,User talk:RJII,/* So what's next then? */
2006-06-24T20:12:16+00:00,60381858,60377740,1,RJII,User talk:RJII,/* So what's next then? */
2006-06-24T19:59:38+00:00,60380197,60378392,1,RJII,A Vindication of Natural Society,italics
2006-06-24T19:46:11+00:00,60378392,60378079,1,RJII,A Vindication of Natural Society,/* Further reading */ link to source
2006-06-24T19:43:51+00:00,60378079,60378029,1,RJII,A Vindication of Natural Society,
2006-06-24T19:43:29+00:00,60378029,60377994,1,RJII,A Vindication of Natural Society,
2006-06-24T19:43:15+00:00,60377994,60377917,1,RJII,A Vindication of Natural Society,
2006-06-24T19:42:54+00:00,60377917,60377368,1,RJII,A Vindication of Natural Society,maybe in the individualist camp
2006-06-24T19:38:49+00:00,60377368,60377311,1,RJII,A Vindication of Natural Society,
2006-06-24T19:38:26+00:00,60377311,60377251,1,RJII,A Vindication of Natural Society,
2006-06-24T19:38:03+00:00,60377251,60377131,1,RJII,A Vindication of Natural Society,
2006-06-24T19:37:12+00:00,60377131,60376972,1,RJII,A Vindication of Natural Society,
2006-06-24T19:36:03+00:00,60376972,60376862,1,RJII,A Vindication of Natural Society,
2006-06-24T19:35:18+00:00,60376862,60376790,1,RJII,A Vindication of Natural Society,/* See also */
2006-06-24T19:34:41+00:00,60376790,60375796,1,RJII,A Vindication of Natural Society,source for first anarchism
2006-06-24T19:27:02+00:00,60375796,57915071,1,RJII,A Vindication of Natural Society,consenus is that it was satire? i doubt that. i request a source.
2006-06-24T19:16:21+00:00,60374445,60290295,1,RJII,Wikipedia talk:Administrators' noticeboard,
2006-06-24T08:28:09+00:00,60310458,60310320,1,RJII,Talk:Objectivism,"/* No academic source for ""philosophy"" */"
2006-06-24T08:18:22+00:00,60309772,60307787,1,RJII,Talk:Objectivism,"/* No academic source for ""philosophy"" */"
2006-06-24T07:46:56+00:00,60307224,60299242,1,RJII,Talk:Anti-capitalism,/* von Mises's criticism */
2006-06-24T07:32:42+00:00,60305929,60305739,1,RJII,User talk:RJII,/* A question */
2006-06-24T07:29:09+00:00,60305580,60305227,1,RJII,User talk:RJII,/* A question */
2006-06-24T07:25:06+00:00,60305227,60305077,1,RJII,User talk:RJII,/* A question */
2006-06-24T07:23:30+00:00,60305077,60305037,1,RJII,User talk:RJII,/* A question */
2006-06-24T07:22:59+00:00,60305037,60304920,1,RJII,User talk:RJII,/* A question */
2006-06-24T07:21:36+00:00,60304920,60304275,1,RJII,User talk:RJII,/* A question */
2006-06-23T18:25:52+00:00,60210162,60209679,1,RJII,Anarchism,/* Anarcho-capitalism */ moved sentence to more logical location
2006-06-23T18:22:55+00:00,60209679,60209231,1,RJII,Anarchism,/* Anarcho-capitalism */ source for rothbardian philosophy on property
2006-06-23T18:20:12+00:00,60209231,60209105,1,RJII,Anarchism,/* Anarcho-capitalism */ can't originate property just by claiming it
2006-06-23T18:19:26+00:00,60209105,60209068,1,RJII,Anarchism,/* Anarcho-capitalism */
2006-06-23T18:18:56+00:00,60209017,60208895,1,RJII,Anarchism,/* Anarcho-capitalism */
2006-06-23T18:18:14+00:00,60208895,60208834,1,RJII,Anarchism,/* Anarcho-capitalism */
2006-06-23T18:17:51+00:00,60208834,60208637,1,RJII,Anarchism,/* Anarcho-capitalism */ property philosophy
2006-06-23T18:14:52+00:00,60208345,60208110,1,RJII,Libertarianism,/* Rights and consequentialism */
2006-06-23T18:13:10+00:00,60208110,60207796,1,RJII,Libertarianism,"/* Rights and consequentialism */ consequentialists will initiate force in some situations, such as emergency situations"
2006-06-23T18:08:39+00:00,60207464,60207143,1,RJII,Anarchism,"/* American individualist anarchism */ carl levy quote, rebirth of the individualist tradition through anarcho-capitalism"
2006-06-23T17:59:11+00:00,60206003,60205121,1,RJII,William F. Buckley Jr.,"he's a self-proclaimed libertarian.  (also, there is nothing anti-libertarian about preemptive war  ..it all depends on what kind of libertarian you are ..an anti-force guy, or a consequentialist)"
2006-06-23T17:49:05+00:00,60204432,60204265,1,RJII,Anarchism/historical,
2006-06-23T17:48:04+00:00,60204265,53806564,1,RJII,Anarchism/historical,/* Philosophical traces */ zhunagzi
2006-06-23T16:53:45+00:00,60195988,60195251,1,RJII,Anarchist communism,/* Criticisms */ deleted unsourced and apparent orginal research criticism
2006-06-23T16:27:43+00:00,60192052,60191748,1,RJII,Talk:Ayn Rand,/* Randist side getting their way */
2006-06-23T16:25:45+00:00,60191748,60191654,1,RJII,Talk:Ayn Rand,/* Randist side getting their way */
2006-06-23T16:25:02+00:00,60191654,60191591,1,RJII,Talk:Ayn Rand,/* Randist side getting their way */
2006-06-23T16:24:34+00:00,60191591,60190178,1,RJII,Talk:Ayn Rand,/* Randist side getting their way */
2006-06-23T16:14:24+00:00,60190178,60190118,1,RJII,Talk:Ayn Rand,/* Randist side getting their way */
2006-06-23T16:13:56+00:00,60190118,60190040,1,RJII,Talk:Ayn Rand,/* Randist side getting their way */
2006-06-23T16:13:24+00:00,60190040,60189920,1,RJII,Talk:Ayn Rand,/* Randist side getting their way */
2006-06-23T16:12:32+00:00,60189920,60189652,1,RJII,Talk:Ayn Rand,/* Randist side getting their way */
2006-06-23T15:58:44+00:00,60187905,59540777,1,RJII,Lyndon LaRouche,"NPOV category to ""Alleged"" cult leaders"
2006-06-23T15:55:39+00:00,60187390,59917593,1,RJII,L. Ron Hubbard,"npov category to ""alleged"" cult leaders"
2006-06-23T15:54:10+00:00,60187146,60187102,1,RJII,Category talk:Cults,
2006-06-23T15:53:51+00:00,60187102,60184996,1,RJII,Category talk:Cults,
2006-06-23T15:51:24+00:00,60186710,58948600,1,RJII,Category:Cults,people are listed here that there is not a consensus of sources agreeing that they're cults. It's POV to assert that these are cults without that consensus. see talk.
2006-06-23T15:45:32+00:00,60185774,60185040,1,RJII,Ayn Rand,"NPOV Category tag to ""Alleged cult leaders""   Don't violate the NPOV policy."
2006-06-23T15:43:42+00:00,60185452,60184471,1,RJII,Talk:Ayn Rand,/* Randist side getting their way */
2006-06-23T15:40:51+00:00,60184996,60184928,1,RJII,Category talk:Cults,
2006-06-23T15:40:30+00:00,60184928,60093803,1,RJII,Category talk:Cults,
2006-06-23T15:21:59+00:00,60182203,60170821,1,RJII,Talk:Ayn Rand,/* Randist side getting their way */
2006-06-23T15:04:10+00:00,60179584,60161133,1,RJII,Anarchist communism,rv to RJII due to massive blanking by Maxrspct
2006-06-23T15:02:10+00:00,60179317,60137852,1,RJII,User talk:RJII,cleanup
2006-06-23T07:52:09+00:00,60137852,60118453,1,RJII,User talk:RJII,/* The Project */
2006-06-23T05:47:48+00:00,60127386,60127322,1,RJII,Talk:Anarchism,"/* Capitalism, an institution? */"
2006-06-23T05:47:09+00:00,60127322,60126856,1,RJII,Talk:Anarchism,"/* Capitalism, an institution? */"
2006-06-23T05:42:29+00:00,60126856,60126274,1,RJII,Talk:Anarchism,"/* Capitalism, an institution? */"
2006-06-23T05:36:38+00:00,60126274,60125964,1,RJII,Talk:Anarchism,"/* Capitalism, an institution? */"
2006-06-23T05:33:36+00:00,60125964,60125843,1,RJII,Talk:Anarchism,"/* Capitalism, an institution? */"
2006-06-23T05:32:26+00:00,60125843,60125545,1,RJII,Talk:Anarchism,"/* Capitalism, an institution? */"
2006-06-23T05:28:34+00:00,60125466,60124124,1,RJII,Talk:Anarchism,"/* Capitalism, an institution? */"
2006-06-23T05:13:00+00:00,60123882,60123825,1,RJII,Talk:Anarchism,"/* Capitalism, an institution? */"
2006-06-23T05:12:29+00:00,60123825,60123767,1,RJII,Talk:Anarchism,"/* Capitalism, an institution? */"
2006-06-23T05:11:55+00:00,60123767,60123643,1,RJII,Talk:Anarchism,"/* Capitalism, an institution? */"
2006-06-23T05:10:45+00:00,60123643,60122946,1,RJII,Talk:Anarchism,"/* Capitalism, an institution? */"
2006-06-23T04:41:48+00:00,60120759,60120256,1,RJII,Talk:Anarchism,"/* Capitalism, an institution? */"
2006-06-23T04:30:09+00:00,60119596,60119524,1,RJII,Talk:Anarchism,"/* Capitalism, an institution? */"
2006-06-23T04:29:36+00:00,60119524,60119265,1,RJII,Talk:Anarchism,"/* Capitalism, an institution? */"
2006-06-23T04:27:29+00:00,60119288,60116576,1,RJII,Wikipedia:Administrators' noticeboard/Edit warring,/* [[User:Alienus]] reported by User:[[User:RJII|RJII]] */
2006-06-23T04:18:31+00:00,60118284,60118167,1,RJII,Talk:Anarchism,"/* Capitalism, an institution? */"
2006-06-23T04:17:29+00:00,60118167,60118149,1,RJII,Talk:Anarchism,"/* Capitalism, an institution? */"
2006-06-23T04:17:20+00:00,60118149,60117727,1,RJII,Talk:Anarchism,"/* Capitalism, an institution? */"
2006-06-23T04:13:42+00:00,60117727,60117597,1,RJII,Talk:Anarchism,"/* Capitalism, an institution? */"
2006-06-23T04:12:35+00:00,60117597,60117550,1,RJII,Talk:Anarchism,"/* Capitalism, an institution? */"
2006-06-23T04:12:03+00:00,60117550,60117354,1,RJII,Talk:Anarchism,"/* Capitalism, an institution? */"
2006-06-23T04:10:19+00:00,60117354,60117311,1,RJII,Talk:Anarchism,"/* Capitalism, an institution? */"
2006-06-23T04:09:50+00:00,60117311,60115151,1,RJII,Talk:Anarchism,"/* Capitalism, an institution? */"
2006-06-23T04:06:56+00:00,60116936,60116799,1,RJII,Wikipedia:Template index/Sources of articles,HELP! how to format?
2006-06-23T04:05:48+00:00,60116799,60116586,1,RJII,Wikipedia:Template index/Sources of articles,
2006-06-23T04:04:13+00:00,60116586,58025422,1,RJII,Wikipedia:Template index/Sources of articles,"adding inline ""fact"" template"
2006-06-23T03:56:02+00:00,60115592,43244026,1,RJII,Template:Request quotation,more explicit
2006-06-23T03:48:34+00:00,60114774,60114717,1,RJII,Wikipedia:Administrators' noticeboard/Edit warring,/* [[User:Alienus]] reported by User:[[User:RJII|RJII]] */
2006-06-23T03:48:04+00:00,60114717,60114655,1,RJII,Wikipedia:Administrators' noticeboard/Edit warring,/* [[User:Alienus] reported by User:[[User:RJII|RJII]] */
2006-06-23T03:47:26+00:00,60114655,60114462,1,RJII,Wikipedia:Administrators' noticeboard/Edit warring,/* [[User:Alenius]] reported by User:[[User:RJII|RJII]] */
2006-06-23T03:45:31+00:00,60114462,60113647,1,RJII,Wikipedia:Administrators' noticeboard/Edit warring,
2006-06-23T03:36:50+00:00,60113445,60112160,1,RJII,Talk:Anarchism,"/* Capitalism, an institution? */"
2006-06-23T03:25:39+00:00,60112160,60112109,1,RJII,Talk:Anarchism,"/* Capitalism, an institution? */"
2006-06-23T03:25:14+00:00,60112109,60111701,1,RJII,Talk:Anarchism,"/* Capitalism, an institution? */"
2006-06-23T03:21:49+00:00,60111701,60111641,1,RJII,Talk:Anarchism,"/* Capitalism, an institution? */"
2006-06-23T03:21:16+00:00,60111641,60110698,1,RJII,Talk:Anarchism,"/* Capitalism, an institution? */"
2006-06-23T03:13:58+00:00,60110698,60110473,1,RJII,Talk:Anarchism,"/* Capitalism, an institution? */"
2006-06-23T03:10:19+00:00,60110268,60110032,1,RJII,Talk:Anarchism,"/* Capitalism, an institution? */"
2006-06-23T03:08:32+00:00,60110032,60109767,1,RJII,Talk:Anarchism,"/* Capitalism, an institution? */"
2006-06-23T03:06:25+00:00,60109767,60109170,1,RJII,Talk:Anarchism,"/* Capitalism, an institution? */"
2006-06-23T03:01:55+00:00,60109170,60109067,1,RJII,Talk:Anarchism,"/* Capitalism, an institution? */"
2006-06-23T03:01:04+00:00,60109067,60108967,1,RJII,Talk:Anarchism,"/* Capitalism, an institution? */"
2006-06-23T03:00:18+00:00,60108967,60099044,1,RJII,Talk:Anarchism,"/* Capitalism, an institution? */"
2006-06-23T02:47:22+00:00,60107491,60107364,1,RJII,User talk:RJII,/* The Project */
2006-06-23T02:46:24+00:00,60107364,60107125,1,RJII,User talk:RJII,/* The Project */
2006-06-23T02:44:21+00:00,60107125,60106793,1,RJII,User talk:RJII,/* The Project */
2006-06-23T02:41:18+00:00,60106793,60106702,1,RJII,User talk:RJII,/* The Project */
2006-06-23T02:40:32+00:00,60106702,60106629,1,RJII,User talk:RJII,/* The Project */
2006-06-23T02:39:51+00:00,60106629,60106332,1,RJII,User talk:RJII,/* The Project */
2006-06-23T02:37:10+00:00,60106332,60106277,1,RJII,User talk:RJII,/* The Project */
2006-06-23T02:36:41+00:00,60106277,60106191,1,RJII,User talk:RJII,/* The Project */
2006-06-23T02:35:55+00:00,60106191,60106093,1,RJII,User talk:RJII,/* The Project */
2006-06-23T02:35:04+00:00,60106093,60106017,1,RJII,User talk:RJII,/* The Project */
2006-06-23T02:34:31+00:00,60106017,60105943,1,RJII,User talk:RJII,/* The Project */
2006-06-23T02:33:58+00:00,60105943,60105831,1,RJII,User talk:RJII,/* The Project */
2006-06-23T02:33:11+00:00,60105831,60102861,1,RJII,User talk:RJII,/* The Project */
2006-06-23T00:09:54+00:00,60088575,60087171,1,RJII,User talk:RJII,/* The Project */
2006-06-22T23:59:43+00:00,60087171,60087012,1,RJII,User talk:RJII,/* The Project */
2006-06-22T23:58:28+00:00,60087012,60086745,1,RJII,User talk:RJII,/* The Project */
2006-06-22T23:52:47+00:00,60086322,60073724,1,RJII,Objectivist movement,"NPOV category tag.  obviously, there is no consensus among sources that the objectivist movment is a ""cult"""
2006-06-22T23:32:08+00:00,60083689,60083474,1,RJII,User talk:RJII,/* The Project */
2006-06-22T23:30:40+00:00,60083474,60082962,1,RJII,User talk:RJII,/* The Project */
2006-06-22T23:27:04+00:00,60082962,60082654,1,RJII,User talk:RJII,/* The Project */
2006-06-22T23:25:05+00:00,60082654,60082196,1,RJII,User talk:RJII,/* The Project */
2006-06-22T23:21:30+00:00,60082196,60070980,1,RJII,User talk:RJII,/* The Project */
2006-06-22T20:22:21+00:00,60054780,60054430,1,RJII,Objectivism,/* Metaphysics: Objective reality */
2006-06-22T20:20:11+00:00,60054430,60053937,1,RJII,Objectivism,/* Metaphysics: Objective reality */ quote from peikoff
2006-06-22T20:17:12+00:00,60053937,60053846,1,RJII,Objectivism,/* Metaphysics: Objective reality */
2006-06-22T20:16:28+00:00,60053846,60053708,1,RJII,Objectivism,/* Metaphysics: Objective reality */
2006-06-22T20:15:32+00:00,60053708,60051527,1,RJII,Objectivism,/* Metaphysics: Objective reality */ expanding on causality
2006-06-22T19:32:52+00:00,60046787,60046594,1,RJII,Anarchism,
2006-06-22T19:31:31+00:00,60046594,60038715,1,RJII,Anarchism,/* Anarcho-capitalism */ noting additional sources
2006-06-22T19:28:17+00:00,60046104,60030691,1,RJII,Talk:Anarcho-capitalism,/* Somalia section split */
2006-06-22T19:16:37+00:00,60044248,60044092,1,RJII,Objectivism,/* Metaphysics: Objective reality */
2006-06-22T19:15:34+00:00,60044092,60041829,1,RJII,Objectivism,/* Metaphysics: Objective reality */ reason for making the axioms explicit
2006-06-22T19:02:14+00:00,60041829,60041453,1,RJII,Objectivism,/* Metaphysics: Objective reality */
2006-06-22T18:59:49+00:00,60041453,60041132,1,RJII,Objectivism,/* Metaphysics: Objective reality */ typo
2006-06-22T18:58:29+00:00,60041266,60040552,1,RJII,User talk:RJII,/* The Project */
2006-06-22T18:57:43+00:00,60041132,60034995,1,RJII,Objectivism,/* Metaphysics: Objective reality */ how axioms are validated
2006-06-22T18:28:27+00:00,60036451,60034473,1,RJII,Scientology,"NPOV cult tag to ""Category:Alleged cults"""
2006-06-22T18:19:46+00:00,60034995,60033138,1,RJII,Objectivism,/* Cult accusations */ intrawiki link
2006-06-22T18:16:27+00:00,60034454,60034293,1,RJII,User talk:RJII,/* The Project */
2006-06-22T18:08:24+00:00,60033138,60032722,1,RJII,Objectivism,/* Metaphysics: Objective reality */ switched two sentences around
2006-06-22T18:05:56+00:00,60032722,60032160,1,RJII,Objectivism,/* Metaphysics: Objective reality */ typo
2006-06-22T18:02:32+00:00,60032160,59990279,1,RJII,Objectivism,/* Metaphysics: Objective reality */ elaboration on metaphysical realism
2006-06-22T17:44:49+00:00,60029382,60029306,1,RJII,User talk:RJII,/* The Project */
2006-06-22T17:44:16+00:00,60029306,60025952,1,RJII,User talk:RJII,/* The Project */
2006-06-22T17:03:24+00:00,60023365,60022362,1,RJII,User talk:RJII,/* The Project */
2006-06-22T16:29:41+00:00,60018035,60017998,1,RJII,Wikipedia:Administrators' noticeboard/Personal attacks,
2006-06-22T16:29:27+00:00,60017998,60017863,1,RJII,Wikipedia:Administrators' noticeboard/Personal attacks,
2006-06-22T16:28:44+00:00,60017863,59942351,1,RJII,Wikipedia:Administrators' noticeboard/Personal attacks,
2006-06-22T16:24:34+00:00,60017172,60017137,1,RJII,User talk:RJII,/* The Project */
2006-06-22T16:24:20+00:00,60017137,60005614,1,RJII,User talk:RJII,/* The Project */
2006-06-21T23:53:36+00:00,59905877,59892423,1,RJII,Talk:Ayn Rand,
2006-06-21T23:49:12+00:00,59905280,59904243,1,RJII,Anarchism,i request a source for this. it may be the case that most anarchists are anarcho-capitalists
2006-06-21T23:47:45+00:00,59905111,59841854,1,RJII,Talk:Scientology,
2006-06-21T23:43:29+00:00,59904503,59889595,1,RJII,Anarchism and anarcho-capitalism,rv to RJII. An Anarchist FAQ is not a credible source according to policy.
2006-06-21T23:37:23+00:00,59903691,59903237,1,RJII,Talk:Objectivism,"/* Move ""Cult accusations"" to [[Objectivist movement]] */"
2006-06-21T23:34:21+00:00,59903233,59903148,1,RJII,User talk:RJII,/* The Project */
2006-06-21T23:33:44+00:00,59903158,59902731,1,RJII,Talk:Anarchism,/* AC removed */ my mistake. vacation starts in about a week
2006-06-21T23:30:58+00:00,59902802,59896014,1,RJII,User talk:RJII,/* The Project */
2006-06-21T22:12:27+00:00,59891456,59891318,1,RJII,Talk:Anarchism,/* AC removed */
2006-06-21T22:11:30+00:00,59891318,59891251,1,RJII,Talk:Anarchism,/* AC removed */
2006-06-21T22:11:06+00:00,59891251,59891138,1,RJII,Talk:Anarchism,/* AC removed */
2006-06-21T22:10:23+00:00,59891138,59891035,1,RJII,Talk:Anarchism,/* AC removed */
2006-06-21T22:09:48+00:00,59891035,59891003,1,RJII,Talk:Anarchism,/* AC removed */
2006-06-21T22:09:11+00:00,59890935,59890661,1,RJII,Anarchism,rv to VisionThing. Whole anarcho-capitalism section was deleted. even though there are plenty of scholarly sources saying it's anarchism
2006-06-21T22:07:19+00:00,59890623,59890541,1,RJII,Talk:Anarchism,/* AC removed */
2006-06-21T22:06:49+00:00,59890541,59890498,1,RJII,Talk:Anarchism,/* AC removed */
2006-06-21T22:06:36+00:00,59890498,59889755,1,RJII,Talk:Anarchism,/* AC removed */
2006-06-21T22:04:29+00:00,59890174,59845102,1,RJII,Anarcho-capitalism,wikiquote
2006-06-21T22:00:04+00:00,59889486,59889149,1,RJII,Talk:Anarchism,/* AC removed */
2006-06-21T21:57:53+00:00,59889149,59888768,1,RJII,Talk:Anarchism,/* AC removed */
2006-06-21T21:55:31+00:00,59888768,59888172,1,RJII,Talk:Anarchism,/* AC removed */
2006-06-21T21:35:14+00:00,59885426,59885181,1,RJII,Talk:Objectivism,"/* Move ""Cult accusations"" to [[Objectivist movement]] */ format"
2006-06-21T21:33:05+00:00,59885045,59884252,1,RJII,Talk:Objectivism,
2006-06-21T21:21:50+00:00,59883130,59882452,1,RJII,Talk:Anarchism,/* AC removed */
2006-06-21T21:16:48+00:00,59882238,59882188,1,RJII,Scientology,NPOV category tag
2006-06-21T21:16:37+00:00,59882188,59864244,1,RJII,Scientology,NPOV category tag
2006-06-21T21:15:54+00:00,59882052,59831722,1,RJII,Objectivist movement,NPOV category tag
2006-06-21T07:33:40+00:00,59773042,59752475,1,RJII,Ayn Rand,"NPOV   category - ""alleged cult leaders"""
2006-06-21T07:32:10+00:00,59772945,59768038,1,RJII,Talk:Objectivist movement,/* Rename from [[Objectivist movement]] to [[Objectivism (movement)]] */
2006-06-21T07:29:42+00:00,59772697,59772671,1,RJII,Talk:Reaganomics,/* Reagaonomics is Reagan's words */
2006-06-21T07:29:32+00:00,59772671,52859070,1,RJII,Talk:Reaganomics,
2006-06-21T07:18:03+00:00,59771486,59771456,1,RJII,Objectivism,
2006-06-21T07:17:47+00:00,59771456,59768304,1,RJII,Objectivism,"see Objectivist movement article, for the movement"
2006-06-21T07:10:12+00:00,59770569,59758999,1,RJII,Scientology,"changing category to ""Alleged cults""   ..we can't assert it as fact that it's a cult. there is not a consensus, therefore this is the NPOV thing to do."
2006-06-21T06:58:05+00:00,59769150,58308882,1,RJII,Objectivist movement,[[Category:Alleged cults]]
2006-06-21T06:56:43+00:00,59769050,59768884,1,RJII,Talk:Objectivism,/* Objectivism a cult? */
2006-06-21T06:53:34+00:00,59768816,59768727,1,RJII,Talk:Objectivism,/* Objectivism a cult? */
2006-06-21T06:51:31+00:00,59768616,59768427,1,RJII,Talk:Objectivism,/* Objectivism a cult? */
2006-06-21T06:49:08+00:00,59768375,59768351,1,RJII,Talk:Objectivism,/* Objectivism a cult? */
2006-06-21T06:48:54+00:00,59768351,59768277,1,RJII,Talk:Objectivism,/* Objectivism a cult? */
2006-06-21T06:45:30+00:00,59768038,59767718,1,RJII,Talk:Objectivist movement,/* Rename from [[Objectivist movement]] to [[Objectivism (movement)]] */
2006-06-21T06:44:27+00:00,59767929,59766660,1,RJII,Objectivism,"Alenius, any argument you had for the Cult tag has been completely shot. besides, consensus is against you. reverting to RJII to delete Cult tag."
2006-06-21T06:42:15+00:00,59767718,59767551,1,RJII,Talk:Objectivist movement,/* Rename from [[Objectivist movement]] to [[Objectivism (movement)]] */
2006-06-21T06:40:38+00:00,59767551,59766539,1,RJII,Talk:Objectivist movement,/* Rename from [[Objectivist movement]] to [[Objectivism (movement)]] */
2006-06-21T06:33:32+00:00,59766842,59766796,1,RJII,Category:Republics,
2006-06-21T06:33:02+00:00,59766796,57093825,1,RJII,Category:Republics,[[Category:Constitutional republics]]
2006-06-21T06:31:22+00:00,59766647,59765875,1,RJII,United States,[[Category:Constitutional republics]]
2006-06-21T06:25:20+00:00,59766083,58709644,1,RJII,Black rice,a purple sauce comes out when you cook it
2006-06-21T06:18:47+00:00,59765450,59754715,1,RJII,Reaganomics,/* History */ at least let Reagan himself say something about Reaganomics. I think this quote is good introductory text.
2006-06-21T06:14:15+00:00,59765019,59765000,1,RJII,Talk:Classical liberalism,/* Proposing structure across multiple articles */
2006-06-21T06:14:00+00:00,59765000,59764340,1,RJII,Talk:Classical liberalism,/* Proposing structure across multiple articles */
2006-06-21T06:06:02+00:00,59764305,59763686,1,RJII,User talk:RJII,/* Objectivism the cult */
2006-06-21T06:01:21+00:00,59763855,59762009,1,RJII,Talk:Objectivist movement,/* Rename from [[Objectivist movement]] to [[Objectivism (movement)]] */
2006-06-21T05:46:04+00:00,59762318,59761719,1,RJII,Talk:Objectivism,/* Objectivism a cult? */
2006-06-21T05:36:37+00:00,59761329,59760738,1,RJII,Talk:Objectivism,/* Objectivism a cult? */
2006-06-21T05:14:55+00:00,59758958,59753371,1,RJII,Objectivism,"no sources presented say Objectivism is a cult. Above all there is not a consensus that it is a cult, therefore we can't have a tag that asserts such."
2006-06-21T05:00:57+00:00,59757416,59757135,1,RJII,Wikipedia:Articles for deletion/Responses to Objectivism,/* [[Responses to Objectivism]] */
2006-06-21T04:58:00+00:00,59757135,59756241,1,RJII,Wikipedia:Articles for deletion/Responses to Objectivism,/* [[Responses to Objectivism]] */
2006-06-21T04:52:03+00:00,59756430,59756220,1,RJII,Talk:Objectivism,/* The bottom line on the cult tags. */
2006-06-21T04:50:32+00:00,59756241,59756078,1,RJII,Wikipedia:Articles for deletion/Responses to Objectivism,/* [[Responses to Objectivism]] */
2006-06-21T04:49:24+00:00,59756078,59755872,1,RJII,Wikipedia:Articles for deletion/Responses to Objectivism,/* [[Responses to Objectivism]] */
2006-06-21T04:48:00+00:00,59755872,59755299,1,RJII,Wikipedia:Articles for deletion/Responses to Objectivism,/* [[Responses to Objectivism]] */
2006-06-21T04:43:39+00:00,59755206,59755058,1,RJII,Talk:Objectivism,/* The bottom line on the cult tags. */
2006-06-21T04:42:35+00:00,59755058,59754946,1,RJII,Talk:Objectivism,/* The bottom line on the cult tags. */
2006-06-21T04:41:43+00:00,59754946,59752279,1,RJII,Talk:Objectivism,/* The bottom line on the cult tags. */
2006-06-21T04:30:47+00:00,59753371,59753272,1,RJII,Objectivism,/* Metaphysics: Objective reality */ italics identity
2006-06-21T04:30:04+00:00,59753272,59753216,1,RJII,Objectivism,/* Metaphysics: Objective reality */
2006-06-21T04:29:44+00:00,59753216,59751685,1,RJII,Objectivism,/* Metaphysics: Objective reality */ expansion on law of casuality
2006-06-21T04:18:10+00:00,59751685,59751594,1,RJII,Objectivism,/* Metaphysics: Objective reality */
2006-06-21T04:12:55+00:00,59750977,59750904,1,RJII,Objectivism,/* Metaphysics: Objective reality */
2006-06-21T04:12:23+00:00,59750904,59750176,1,RJII,Objectivism,/* Metaphysics: Objective reality */ grammar
2006-06-21T04:10:55+00:00,59750685,59749625,1,RJII,Utopia (anarchist community),noting the source  ..(i know because i wrote the article)
2006-06-21T04:07:04+00:00,59750176,59749825,1,RJII,Objectivism,/* Metaphysics: Objective reality */
2006-06-21T04:04:20+00:00,59749825,59749687,1,RJII,Objectivism,/* Metaphysics: Objective reality */
2006-06-21T04:03:19+00:00,59749687,59749458,1,RJII,Objectivism,/* Metaphysics: Objective reality */ rand quote on identiy
2006-06-21T04:01:35+00:00,59749458,59747947,1,RJII,Objectivism,/* Metaphysics: Objective reality */ tweaking Identity
2006-06-21T03:50:11+00:00,59747947,59747143,1,RJII,Objectivism,/* Metaphysics: Objective reality */ noting axiomatic nature of law of identity
2006-06-21T03:44:25+00:00,59747143,59746621,1,RJII,Objectivism,/* Metaphysics: Objective reality */ quote from Rand
2006-06-21T03:37:05+00:00,59746169,59667867,1,RJII,Objectivism,"/* Metaphysics: Objective reality */ argument as not that the axioms are true, but simply that they're axioms - with source"
2006-06-21T03:28:28+00:00,59745079,59744956,1,RJII,Wikipedia:Articles for deletion/Responses to Objectivism,
2006-06-21T03:27:15+00:00,59744956,59744716,1,RJII,Wikipedia:Articles for deletion/Responses to Objectivism,
2006-06-21T03:25:21+00:00,59744716,59744235,1,RJII,Wikipedia:Articles for deletion/Responses to Objectivism,
2006-06-21T03:22:54+00:00,59744411,59688569,1,RJII,Talk:Classical liberalism,/* Bentham */
2006-06-21T03:20:05+00:00,59744043,59631182,1,RJII,Talk:Modern liberalism in the United States,/* RJII's edit */
2006-06-21T03:11:44+00:00,59743015,59742435,1,RJII,Wikipedia:Articles for deletion/Responses to Objectivism,
2006-06-21T03:07:10+00:00,59742435,59725622,1,RJII,Wikipedia:Articles for deletion/Responses to Objectivism,
2006-06-21T03:01:44+00:00,59741791,59705698,1,RJII,User talk:RJII,/* 3RR investigation */
2006-06-20T19:35:07+00:00,59676605,59676043,1,RJII,Talk:Classical liberalism,/* Proposing structure across multiple articles */
2006-06-20T19:31:02+00:00,59676043,59675939,1,RJII,Talk:Classical liberalism,/* Proposing structure across multiple articles */
2006-06-20T19:30:17+00:00,59675939,59675876,1,RJII,Talk:Classical liberalism,/* Proposing structure across multiple articles */
2006-06-20T19:29:56+00:00,59675876,59657121,1,RJII,Talk:Classical liberalism,/* Proposing structure across multiple articles */
2006-06-20T19:03:18+00:00,59671910,59671863,1,RJII,Talk:Liberalism in the United States,/* Mmmm... */
2006-06-20T19:02:58+00:00,59671863,59671528,1,RJII,Talk:Liberalism in the United States,/* Mmmm... */
2006-06-20T19:00:54+00:00,59671528,59671258,1,RJII,Talk:Liberalism in the United States,/* Mmmm... */
2006-06-20T18:59:12+00:00,59671258,59635669,1,RJII,Talk:Liberalism in the United States,/* Mmmm... */
2006-06-20T18:53:32+00:00,59670274,59669191,1,RJII,Talk:Objectivism,/* The bottom line on the cult tags. */
2006-06-20T18:46:53+00:00,59669191,59668987,1,RJII,Talk:Objectivism,/* Responses to Objectivism (vote) */
2006-06-20T18:45:44+00:00,59668987,59668805,1,RJII,Talk:Objectivism,/* Randism */
2006-06-20T18:44:40+00:00,59668805,59667945,1,RJII,Talk:Objectivism,/* Randism */
2006-06-20T18:39:18+00:00,59667867,59665757,1,RJII,Objectivism,/* Metaphysics: Objective reality */ grammar
2006-06-20T18:37:36+00:00,59667580,59667405,1,RJII,Talk:Objectivism,/* The bottom line on the cult tags. */
2006-06-20T18:36:40+00:00,59667405,59667228,1,RJII,Talk:Objectivism,/* The bottom line on the cult tags. */
2006-06-20T18:35:40+00:00,59667228,59666725,1,RJII,Talk:Objectivism,/* The bottom line on the cult tags. */
2006-06-20T18:26:52+00:00,59665757,59643486,1,RJII,Objectivism,/* Metaphysics: Objective reality */ expanding on Identity
2006-06-20T18:05:16+00:00,59662177,59660133,1,RJII,Talk:Objectivism,/* The bottom line on the cult tags. */
2006-06-20T04:59:01+00:00,59571883,59551136,1,RJII,United States,intrawiki link
2006-06-20T04:39:53+00:00,59569768,59569462,1,RJII,Anarcho-capitalism,/* Private law and order */
2006-06-20T04:37:04+00:00,59569462,59547697,1,RJII,Anarcho-capitalism,/* Private law and order */ different ancaps have different ideas for law
2006-06-20T04:00:27+00:00,59564707,58841013,1,RJII,Market economy,formatting sources properly
2006-06-20T03:39:27+00:00,59562145,58482128,1,RJII,Breakfast cereal,"removed POV.  they fortify with vitamins to get people to buy the cereal.   how do you know it's to ""allay concerns"" that they're not nutritious?"
2006-06-20T03:27:46+00:00,59560569,59560542,1,RJII,Objectivist metaphysics,/* The Primacy of Existence */
2006-06-20T03:27:35+00:00,59560542,59560316,1,RJII,Objectivist metaphysics,/* The Primacy of Existence */ aka metaphysical realism
2006-06-20T03:25:39+00:00,59560316,54489501,1,RJII,Objectivist metaphysics,"/* The Primacy of Existence */ changed conscious of ""self"" to conscious of consciousness"
2006-06-20T03:10:00+00:00,59558242,59558207,1,RJII,Objectivism,/* Metaphysics: Objective reality */ .
2006-06-20T03:09:44+00:00,59558207,59484286,1,RJII,Objectivism,/* Metaphysics: Objective reality */ no such thing as a consciousness conscious of nothing
2006-06-20T02:40:26+00:00,59554616,59237495,1,RJII,Metaphysical realism,a couple external links
2006-06-20T02:30:30+00:00,59553376,59371556,1,RJII,Anarchism in the United States,removed unnecessary awkward intro sentence
2006-06-20T02:24:59+00:00,59552730,59552433,1,RJII,Wikipedia:Articles for deletion/Responses to Objectivism,
2006-06-20T02:22:20+00:00,59552433,59552191,1,RJII,Wikipedia:Articles for deletion/Responses to Objectivism,
2006-06-20T02:20:33+00:00,59552191,59551728,1,RJII,Wikipedia:Articles for deletion/Responses to Objectivism,
2006-06-20T02:17:08+00:00,59551728,59551477,1,RJII,Wikipedia:Articles for deletion/Responses to Objectivism,
2006-06-20T02:15:00+00:00,59551477,59547914,1,RJII,Wikipedia:Articles for deletion/Responses to Objectivism,
2006-06-20T01:47:01+00:00,59547914,59547677,1,RJII,Wikipedia:Articles for deletion/Responses to Objectivism,
2006-06-20T01:45:12+00:00,59547677,59547573,1,RJII,Wikipedia:Articles for deletion/Responses to Objectivism,
2006-06-20T01:44:20+00:00,59547573,59546385,1,RJII,Wikipedia:Articles for deletion/Responses to Objectivism,/* [[Responses to Objectivism]] */
2006-06-20T01:35:39+00:00,59546386,58037026,1,RJII,Modern liberalism in the United States,ency britannica on difference between american and european
2006-06-20T01:29:48+00:00,59545665,59540418,1,RJII,Anarcho-capitalism,/* Liberalism */
2006-06-20T01:18:13+00:00,59544172,52348265,1,RJII,Telenet,
2006-06-20T01:03:30+00:00,59542398,59542296,1,RJII,Randism,
2006-06-20T01:02:50+00:00,59542296,59542091,1,RJII,Randism,
2006-06-20T00:59:26+00:00,59541832,59541483,1,RJII,Talk:Randism,
2006-06-20T00:56:47+00:00,59541483,59541285,1,RJII,Talk:Randism,
2006-06-20T00:50:56+00:00,59540772,59509372,1,RJII,Wikipedia:Articles for deletion/Responses to Objectivism,/* [[Responses to Objectivism]] */
2006-06-20T00:48:07+00:00,59540418,59539737,1,RJII,Anarcho-capitalism,/* Liberalism */
2006-06-20T00:42:58+00:00,59539737,59533471,1,RJII,Anarcho-capitalism,/* Liberalism */ source for stirner lineage
2006-06-19T22:08:54+00:00,59516483,59516221,1,RJII,Anarcho-capitalism,
2006-06-19T22:07:15+00:00,59516221,59515386,1,RJII,Anarcho-capitalism,noting author of article not an anarcho-capitalist
2006-06-19T22:02:15+00:00,59515386,59511569,1,RJII,Anarcho-capitalism,intrawiki link
2006-06-19T21:55:32+00:00,59514303,59497492,1,RJII,Truthiness,/* Similar concepts */ similarity to epistemological mysticism
2006-06-19T21:38:17+00:00,59511569,59511317,1,RJII,Anarcho-capitalism,
2006-06-19T21:36:42+00:00,59511317,59511107,1,RJII,Anarcho-capitalism,
2006-06-19T21:35:25+00:00,59511107,59510259,1,RJII,Anarcho-capitalism,"changed ""many"" to ""some"" say Molinari was first ancap"
2006-06-19T21:34:16+00:00,59510910,59379791,1,RJII,Talk:Anarcho-capitalism,/* 67.141.22.170 */
2006-06-19T21:30:39+00:00,59510259,59509730,1,RJII,Anarcho-capitalism,intrawiki links
2006-06-19T21:27:45+00:00,59509730,59502941,1,RJII,Anarcho-capitalism,added another source to the paragraph someone deleted as not being sourced. and re-arranged a little.
2006-06-19T21:21:55+00:00,59508746,59508638,1,RJII,User talk:RJII,"/* [[Wal-Mart]], [[Criticism of Wal-Mart]] */"
2006-06-19T21:21:19+00:00,59508638,59508315,1,RJII,User talk:RJII,"/* [[Wal-Mart]], [[Criticism of Wal-Mart]] */"
2006-06-19T21:09:46+00:00,59506674,59506461,1,RJII,Walmart,/* Economic impact studies in the United States */ HELP.   how do you format this?
2006-06-19T21:08:33+00:00,59506461,59506294,1,RJII,Walmart,/* Economic impact studies in the United States */
2006-06-19T21:07:29+00:00,59506294,59506216,1,RJII,Walmart,/* Economic impact studies in the United States */
2006-06-19T21:07:04+00:00,59506216,59505157,1,RJII,Walmart,/* Economic impact studies in the United States */ trying to format.   i don't get this referencing scheme.
2006-06-19T21:00:50+00:00,59505157,59389738,1,RJII,Walmart,/* Economic impact studies in the United States */ put back in deleted study
2006-06-19T20:45:35+00:00,59502371,59502202,1,RJII,Wikipedia:Articles for deletion/Responses to Objectivism,/* [[Responses to Objectivism]] */
2006-06-19T20:44:40+00:00,59502202,59501303,1,RJII,Wikipedia:Articles for deletion/Responses to Objectivism,/* [[Responses to Objectivism]] */
2006-06-19T20:39:42+00:00,59501303,59501042,1,RJII,Wikipedia:Articles for deletion/Responses to Objectivism,/* [[Responses to Objectivism]] */
2006-06-19T20:38:15+00:00,59501042,59500181,1,RJII,Wikipedia:Articles for deletion/Responses to Objectivism,/* [[Responses to Objectivism]] */
2006-06-19T20:33:17+00:00,59500181,59499824,1,RJII,Wikipedia:Articles for deletion/Responses to Objectivism,/* [[Responses to Objectivism]] */
2006-06-19T20:31:29+00:00,59499824,59499507,1,RJII,Wikipedia:Articles for deletion/Responses to Objectivism,/* [[Responses to Objectivism]] */
2006-06-19T20:29:50+00:00,59499507,59498956,1,RJII,Wikipedia:Articles for deletion/Responses to Objectivism,/* [[Responses to Objectivism]] */
2006-06-19T18:40:55+00:00,59480172,59479668,1,RJII,Wikipedia:Articles for deletion/Responses to Objectivism,/* [[Responses to Objectivism]] */
2006-06-19T18:37:55+00:00,59479668,59479298,1,RJII,Wikipedia:Articles for deletion/Responses to Objectivism,/* [[Responses to Objectivism]] */
2006-06-19T18:35:35+00:00,59479298,59478706,1,RJII,Wikipedia:Articles for deletion/Responses to Objectivism,/* [[Responses to Objectivism]] */
2006-06-19T18:28:50+00:00,59478212,59477870,1,RJII,Wikipedia:Articles for deletion/Responses to Objectivism,/* [[Responses to Objectivism]] */
2006-06-19T18:26:43+00:00,59477870,59477767,1,RJII,Wikipedia:Articles for deletion/Responses to Objectivism,/* [[Responses to Objectivism]] */
2006-06-19T18:11:30+00:00,59475272,59456977,1,RJII,Capitalism,/* Self-interest and Profit */ fixing footnote. rand did not say such a thing about Smith.
2006-06-19T18:04:56+00:00,59474202,59474018,1,RJII,Wikipedia:Articles for deletion/Responses to Objectivism,/* [[Responses to Objectivism]] */
2006-06-19T18:03:54+00:00,59474018,59473555,1,RJII,Wikipedia:Articles for deletion/Responses to Objectivism,
2006-06-19T18:01:14+00:00,59473555,59473370,1,RJII,Wikipedia:Articles for deletion/Responses to Objectivism,/* [[Responses to Objectivism]] */
2006-06-19T18:00:23+00:00,59473370,59473079,1,RJII,Wikipedia:Articles for deletion/Responses to Objectivism,/* [[Responses to Objectivism]] */
2006-06-19T17:59:00+00:00,59473079,59472875,1,RJII,Wikipedia:Articles for deletion/Responses to Objectivism,/* [[Responses to Objectivism]] */
2006-06-19T17:57:55+00:00,59472875,59472552,1,RJII,Wikipedia:Articles for deletion/Responses to Objectivism,/* [[Responses to Objectivism]] */
2006-06-19T17:56:13+00:00,59472552,59471935,1,RJII,Wikipedia:Articles for deletion/Responses to Objectivism,/* [[Responses to Objectivism]] */
2006-06-19T17:55:06+00:00,59472357,59472249,1,RJII,Federal Reserve,/* Historical criticisms */ intrawiki link
2006-06-19T17:54:26+00:00,59472249,59466891,1,RJII,Federal Reserve,/* Historical criticisms */ economists from chicago school also want Fed abolished
2006-06-19T17:52:35+00:00,59471935,59471899,1,RJII,Wikipedia:Articles for deletion/Responses to Objectivism,/* [[Responses to Objectivism]] */
2006-06-19T17:52:23+00:00,59471899,59471865,1,RJII,Wikipedia:Articles for deletion/Responses to Objectivism,/* [[Responses to Objectivism]] */
2006-06-19T17:52:09+00:00,59471865,59471539,1,RJII,Wikipedia:Articles for deletion/Responses to Objectivism,/* [[Responses to Objectivism]] */
2006-06-19T17:49:53+00:00,59471539,59470397,1,RJII,Wikipedia:Articles for deletion/Responses to Objectivism,/* [[Responses to Objectivism]] */
2006-06-19T17:42:53+00:00,59470397,59470227,1,RJII,Wikipedia:Articles for deletion/Responses to Objectivism,/* [[Responses to Objectivism]] */
2006-06-19T17:41:47+00:00,59470227,59470094,1,RJII,Wikipedia:Articles for deletion/Responses to Objectivism,/* [[Responses to Objectivism]] */
2006-06-19T17:40:52+00:00,59470094,59469305,1,RJII,Wikipedia:Articles for deletion/Responses to Objectivism,/* [[Responses to Objectivism]] */
2006-06-19T17:14:57+00:00,59465808,0,1,RJII,Free enterprise economy,Redirecting to [[Capitalism]]
2006-06-19T17:10:38+00:00,59465163,59462550,1,RJII,Anarcho-capitalism,source for tucker and spooner influence on rothbard
2006-06-19T16:57:31+00:00,59463152,59460030,1,RJII,Wikipedia:Articles for deletion/Responses to Objectivism,/* [[Responses to Objectivism]] */
2006-06-19T16:33:32+00:00,59459453,59459272,1,RJII,Free market,
2006-06-19T16:32:17+00:00,59459272,59458770,1,RJII,Free market,
2006-06-19T16:28:56+00:00,59458770,59458625,1,RJII,Free market,/* Notes and references */ changing format
2006-06-19T16:27:56+00:00,59458625,59458124,1,RJII,Free market,providing quoted definition in notes
2006-06-19T16:24:29+00:00,59458124,59457523,1,RJII,Free market,more closely reflect the source definition
2006-06-19T16:20:21+00:00,59457523,59457364,1,RJII,Free market,grammar
2006-06-19T16:19:19+00:00,59457364,59014064,1,RJII,Free market,"reworded definition, to more closely accord with source"
2006-06-19T16:16:45+00:00,59456977,59453302,1,RJII,Capitalism,intrawiki link
2006-06-19T16:11:19+00:00,59456148,59456101,1,RJII,Monopoly,/* Coercive monopoly */
2006-06-19T16:11:00+00:00,59456101,59455748,1,RJII,Monopoly,/* Coercive monopoly */ more accurate description
2006-06-19T16:08:59+00:00,59455748,59420591,1,RJII,Monopoly,"removing merge suggestion. no interest, and based in misunderstanding."
2006-06-19T16:07:09+00:00,59455468,59381966,1,RJII,Wikipedia:Articles for deletion/Responses to Objectivism,/* [[Responses to Objectivism]] */
2006-06-19T16:04:30+00:00,59455044,59454894,1,RJII,Libertarianism,spelling
2006-06-19T16:03:36+00:00,59454894,59328258,1,RJII,Libertarianism,"i think ""deontological"" and ""consequentialist"" is too limiting and problematic. for instance a consequentialist can also forbid all initiation of force and fraud, if he's a rule utilitarian."
2006-06-19T15:56:34+00:00,59453812,59453776,1,RJII,User talk:RJII,
2006-06-19T15:56:18+00:00,59453776,59404909,1,RJII,User talk:RJII,"cleaning my page, per notice that it was too large."
2006-06-19T15:53:12+00:00,59453302,59453189,1,RJII,Capitalism,
2006-06-19T15:52:36+00:00,59453189,59440798,1,RJII,Capitalism,"aka free market economy, free enterprise economy (with source)"
2006-06-19T04:57:27+00:00,59389321,59389284,1,RJII,User talk:RJII,"/* [[User:Alienus|Alienus]], [[User:RJII|RJII]], blocked briefly to stop sterile edit war on [[Randism]] */"
2006-06-19T04:57:08+00:00,59389284,59388072,1,RJII,User talk:RJII,"/* [[User:Alienus|Alienus]], [[User:RJII|RJII]], blocked briefly to stop sterile edit war on [[Randism]] */"
2006-06-19T04:46:07+00:00,59388072,59387718,1,RJII,User talk:RJII,"/* [[User:Alienus|Alienus]], [[User:RJII|RJII]], blocked briefly to stop sterile edit war on [[Randism]] */"
2006-06-19T04:42:54+00:00,59387718,59386355,1,RJII,User talk:RJII,"/* [[User:Alienus|Alienus]], [[User:RJII|RJII]], blocked briefly to stop sterile edit war on [[Randism]] */"
2006-06-19T04:29:31+00:00,59386355,59385842,1,RJII,User talk:RJII,"/* [[User:Alienus|Alienus]], [[User:RJII|RJII]], blocked briefly to stop sterile edit war on [[Randism]] */"
2006-06-19T04:24:39+00:00,59385842,59385176,1,RJII,User talk:RJII,"/* [[User:Alienus|Alienus]], [[User:RJII|RJII]], blocked briefly to stop sterile edit war on [[Randism]] */"
2006-06-19T04:17:46+00:00,59385176,59385013,1,RJII,User talk:RJII,"/* [[User:Alienus|Alienus]], [[User:RJII|RJII]], blocked briefly to stop sterile edit war on [[Randism]] */"
2006-06-19T04:16:03+00:00,59385013,59384913,1,RJII,User talk:RJII,"/* [[User:Alienus|Alienus]], [[User:RJII|RJII]], blocked briefly to stop sterile edit war on [[Randism]] */"
2006-06-19T04:15:03+00:00,59384913,59383917,1,RJII,User talk:RJII,"/* [[User:Alienus|Alienus]], [[User:RJII|RJII]], blocked briefly to stop sterile edit war on [[Randism]] */"
2006-06-19T04:06:24+00:00,59383917,59383881,1,RJII,User talk:RJII,"/* [[User:Alienus|Alienus]], [[User:RJII|RJII]], blocked briefly to stop sterile edit war on [[Randism]] */"
2006-06-19T04:06:02+00:00,59383881,59383847,1,RJII,User talk:RJII,"/* [[User:Alienus|Alienus]], [[User:RJII|RJII]], blocked briefly to stop sterile edit war on [[Randism]] */"
2006-06-19T04:05:49+00:00,59383847,59383546,1,RJII,User talk:RJII,"/* [[User:Alienus|Alienus]], [[User:RJII|RJII]], blocked briefly to stop sterile edit war on [[Randism]] */"
2006-06-19T04:03:12+00:00,59383546,59383139,1,RJII,User talk:RJII,"/* [[User:Alienus|Alienus]], [[User:RJII|RJII]], blocked briefly to stop sterile edit war on [[Randism]] */"
2006-06-19T03:48:49+00:00,59381966,59379549,1,RJII,Wikipedia:Articles for deletion/Responses to Objectivism,/* [[Responses to Objectivism]] */
2006-06-19T03:47:44+00:00,59381828,59362048,1,RJII,Objectivism,"/* Metaphysics: Objective reality */ changed ""determing what is real"" to ""discovering reality"""
2006-06-19T03:29:07+00:00,59379791,59178553,1,RJII,Talk:Anarcho-capitalism,/* 67.141.22.170 */
2006-06-19T03:26:59+00:00,59379527,59362245,1,RJII,Randism,rv to RJII. see talk.
2006-06-19T03:25:38+00:00,59379365,59362168,1,RJII,Talk:Randism,/* Randism <> Objectivism */
2006-06-19T03:19:42+00:00,59378653,59378618,1,RJII,Wikipedia:Articles for deletion/Responses to Objectivism,/* [[Responses to Objectivism]] */
2006-06-19T03:19:23+00:00,59378618,59364515,1,RJII,Wikipedia:Articles for deletion/Responses to Objectivism,/* [[Responses to Objectivism]] */
2006-06-19T03:16:12+00:00,59378281,59378106,1,RJII,Talk:Objectivism,/* The bottom line on the cult tags. */
2006-06-19T03:14:32+00:00,59378106,59378000,1,RJII,Talk:Objectivism,/* The bottom line on the cult tags. */
2006-06-19T03:13:22+00:00,59378000,59377874,1,RJII,Talk:Objectivism,/* The bottom line on the cult tags. */
2006-06-19T03:12:13+00:00,59377874,59377842,1,RJII,Talk:Objectivism,/* The bottom line on the cult tags. */
2006-06-19T03:11:53+00:00,59377842,59377751,1,RJII,Talk:Objectivism,/* The bottom line on the cult tags. */
2006-06-19T03:11:07+00:00,59377751,59377440,1,RJII,Talk:Objectivism,/* The bottom line on the cult tags. */
2006-06-19T03:08:39+00:00,59377440,59377254,1,RJII,Talk:Objectivism,/* The bottom line on the cult tags. */
2006-06-19T03:07:08+00:00,59377254,59377110,1,RJII,Talk:Objectivism,/* The bottom line on the cult tags. */
2006-06-19T03:06:06+00:00,59377110,59376905,1,RJII,Talk:Objectivism,/* The bottom line on the cult tags. */
2006-06-19T03:04:43+00:00,59376905,59360843,1,RJII,Talk:Objectivism,/* The bottom line on the cult tags. */
2006-06-19T03:01:28+00:00,59376480,59327734,1,RJII,User talk:RJII,/* Cunning */
2006-06-18T18:54:27+00:00,59310461,59309905,1,RJII,Talk:Objectivism,/* The bottom line on the cult tags. */
2006-06-18T18:52:30+00:00,59310157,59309678,1,RJII,Talk:Ayn Rand,/* Final word on the cult issue. */
2006-06-18T18:50:46+00:00,59309905,59309796,1,RJII,Talk:Objectivism,/* The bottom line on the cult tags. */
2006-06-18T18:49:58+00:00,59309796,59309727,1,RJII,Talk:Objectivism,/* The bottom line on the cult tags. */
2006-06-18T18:49:32+00:00,59309727,59309348,1,RJII,Talk:Objectivism,/* The bottom line on the cult tags. */
2006-06-18T18:46:54+00:00,59309348,59308963,1,RJII,Talk:Objectivism,/* The bottom line on the cult tags. */
2006-06-18T18:45:59+00:00,59309230,59304756,1,RJII,Randism,don't revert without consensus
2006-06-18T18:44:50+00:00,59309065,59308819,1,RJII,Wikipedia:Administrators' noticeboard/Edit warring,/* [[User:Max_rspct]] reported by User:[[User:RJII|RJII]] */
2006-06-18T18:44:12+00:00,59308963,59308848,1,RJII,Talk:Objectivism,/* The bottom line on the cult tags. */
2006-06-18T18:43:11+00:00,59308819,59305935,1,RJII,Wikipedia:Administrators' noticeboard/Edit warring,/* [[User:Max_rspct]] reported by User:[[User:RJII|RJII]] */
2006-06-18T18:23:31+00:00,59305935,59305388,1,RJII,Wikipedia:Administrators' noticeboard/Edit warring,/* [[User:Max_rspct]] reported by User:[[User:RJII|RJII]] */
2006-06-18T18:21:05+00:00,59305564,59305285,1,RJII,Talk:Randism,/* Randism <> Objectivism */
2006-06-18T18:18:55+00:00,59305285,59305011,1,RJII,Talk:Randism,/* Randism <> Objectivism */
2006-06-18T18:14:27+00:00,59304664,59304172,1,RJII,Wikipedia:Administrators' noticeboard/Edit warring,/* [[User:Max_rspct]] reported by User:[[User:RJII|RJII]] */
2006-06-18T18:10:52+00:00,59304172,59304104,1,RJII,Wikipedia:Administrators' noticeboard/Edit warring,/* [[User:Max_rspct]] reported by User:[[User:RJII|RJII]] */
2006-06-18T18:10:17+00:00,59304104,59303426,1,RJII,Wikipedia:Administrators' noticeboard/Edit warring,
2006-06-18T18:00:31+00:00,59302787,59252990,1,RJII,Talk:Profit/Old history,picture
2006-06-18T17:50:41+00:00,59301570,59301245,1,RJII,Capitalism,"/* Self interest */ renamed to ""Self-interest and profit"""
2006-06-18T17:48:08+00:00,59301245,59301191,1,RJII,Capitalism,/* Notes */ changing title to Notes and References
2006-06-18T17:47:44+00:00,59301191,59300489,1,RJII,Capitalism,/* Self interest */ moving aside about Rand to a footnote
2006-06-18T17:42:15+00:00,59300489,59300396,1,RJII,Capitalism,/* Self interest */ typo
2006-06-18T17:41:30+00:00,59300396,59299502,1,RJII,Capitalism,additional (mainstream) source for self-interest as being essential to capitalism
2006-06-18T17:18:37+00:00,59297491,59292833,1,RJII,Capitalism,"rv blanking of section by Maxrspct.   selfishness is essential to capitalism, as Adam Smith notes"
2006-06-18T17:15:43+00:00,59297134,59290277,1,RJII,Talk:Anarchism,/* Agorism */
2006-06-18T16:18:55+00:00,59290199,59289717,1,RJII,Talk:Objectivism,/* Denial of Reason - Cult of Personality */
2006-06-18T06:48:25+00:00,59237495,59237146,1,RJII,Metaphysical realism,
2006-06-18T06:44:58+00:00,59237146,59236474,1,RJII,Metaphysical realism,
2006-06-18T06:42:21+00:00,59236923,59107744,1,RJII,Anarchist communism,"rv to Exander, due to massive blanking by RadicalMallar.   (also added critique from individualist anarchists)"
2006-06-18T06:37:35+00:00,59236474,59224592,1,RJII,Metaphysical realism,
2006-06-18T06:32:42+00:00,59236033,59235447,1,RJII,Talk:Randism,
2006-06-18T06:26:52+00:00,59235447,59234774,1,RJII,Talk:Randism,
2006-06-18T06:23:06+00:00,59235062,59234328,1,RJII,Talk:Objectivism,/* Denial of Reason - Cult of Personality */
2006-06-18T06:20:12+00:00,59234774,59234326,1,RJII,Talk:Randism,
2006-06-18T06:15:33+00:00,59234326,0,1,RJII,Talk:Randism,
2006-06-18T06:05:43+00:00,59233325,56364031,1,RJII,Randism,objectivism not the same as randism
2006-06-18T06:05:11+00:00,59233260,59233246,1,RJII,Talk:Objectivism,/* Denial of Reason - Cult of Personality */
2006-06-18T06:04:59+00:00,59233246,59232545,1,RJII,Talk:Objectivism,/* Denial of Reason - Cult of Personality */
2006-06-18T05:57:44+00:00,59232545,59232111,1,RJII,Talk:Objectivism,/* Denial of Reason - Cult of Personality */
2006-06-18T05:52:57+00:00,59232111,59231966,1,RJII,Talk:Objectivism,/* Denial of Reason - Cult of Personality */
2006-06-18T05:51:20+00:00,59231966,59231791,1,RJII,Talk:Objectivism,/* Denial of Reason - Cult of Personality */
2006-06-18T05:44:11+00:00,59231250,59231150,1,RJII,Talk:Objectivism,/* Denial of Reason - Cult of Personality */
2006-06-18T05:43:10+00:00,59231150,59230932,1,RJII,Talk:Objectivism,/* Denial of Reason - Cult of Personality */
2006-06-18T05:41:05+00:00,59230932,59230715,1,RJII,Talk:Objectivism,/* Denial of Reason - Cult of Personality */
2006-06-18T05:39:46+00:00,59230781,59227908,1,RJII,Responses to Objectivism,"/* Is Objectivism a cult? */ changed to ""claims of cultism"""
2006-06-18T05:36:23+00:00,59230425,59229797,1,RJII,Objectivism,/* Metaphysics: Objective reality */ moved sentence
2006-06-18T05:29:55+00:00,59229797,59229070,1,RJII,Objectivism,/* Metaphysics: Objective reality */ tweaking
2006-06-18T05:22:12+00:00,59229070,59228665,1,RJII,Objectivism,/* Metaphysics: Objective reality */ restatement for clarity
2006-06-18T05:18:31+00:00,59228665,59227402,1,RJII,Objectivism,/* Metaphysics: Objective reality */ defining reality
2006-06-18T05:10:18+00:00,59227908,59051085,1,RJII,Responses to Objectivism,this statement appears a bit biased
2006-06-18T05:05:37+00:00,59227402,59226980,1,RJII,Objectivism,/* Metaphysics: Objective reality */ grammar
2006-06-18T05:01:38+00:00,59226980,59226871,1,RJII,Objectivism,/* Metaphysics: Objective reality */ grammar
2006-06-18T05:00:39+00:00,59226871,59226254,1,RJII,Objectivism,/* Metaphysics: Objective reality */ grammar
2006-06-18T04:54:40+00:00,59226254,59119669,1,RJII,Objectivism,/* Metaphysics: Objective reality */ expanding on her metaphysical realism
2006-06-18T04:39:29+00:00,59224636,58938496,1,RJII,Realisms,/* Realism in philosophy */ intrawiki link
2006-06-18T04:39:05+00:00,59224592,59224577,1,RJII,Metaphysical realism,
2006-06-18T04:38:56+00:00,59224577,0,1,RJII,Metaphysical realism,
2006-06-17T06:43:57+00:00,59072456,59071989,1,RJII,Talk:Objectivism,/* There is no consensus */
2006-06-17T06:35:24+00:00,59071741,59070206,1,RJII,Talk:Objectivism,/* There is no consensus */
2006-06-17T06:16:50+00:00,59070206,59069690,1,RJII,Talk:Objectivism,/* There is no consensus */
2006-06-17T06:11:15+00:00,59069690,59064979,1,RJII,Talk:Objectivism,/* There is no consensus */
2006-06-17T05:46:51+00:00,59067544,59067327,1,RJII,Talk:Truthiness,/* Truthiness is mysticism */
2006-06-17T05:43:58+00:00,59067327,59066499,1,RJII,Talk:Truthiness,/* Truthiness is mysticism */
2006-06-17T05:33:56+00:00,59066499,59066372,1,RJII,Talk:Truthiness,/* Truthiness is mysticism */
2006-06-17T05:32:31+00:00,59066372,59066340,1,RJII,Talk:Truthiness,/* Truthiness is mysticism */
2006-06-17T05:32:08+00:00,59066340,59066014,1,RJII,Talk:Truthiness,/* Truthiness is mysticism */
2006-06-17T05:28:26+00:00,59066014,59065461,1,RJII,Talk:Truthiness,/* Truthiness is mysticism */
2006-06-17T05:17:26+00:00,59064970,59064519,1,RJII,Talk:Truthiness,/* Truthiness is mysticism */
2006-06-17T05:12:48+00:00,59064519,58213657,1,RJII,Talk:Truthiness,
2006-06-17T04:43:37+00:00,59061550,59061032,1,RJII,Talk:Objectivism,/* There is no consensus */
2006-06-17T04:28:51+00:00,59060084,59059531,1,RJII,Talk:Anarchist communism,/* RadicalMallard deleting Criticism section and links [http://en.wikipedia.org/w/index.php?title=Anarchist_communism&diff=59046404&oldid=59045021] [http://en.wikipedia.org/w/index.php?title=Anarchist_communism&diff=58893688&oldid=58119601] */
2006-06-17T04:26:36+00:00,59059836,59059398,1,RJII,Talk:Objectivism,/* There is no consensus */
2006-06-17T04:23:56+00:00,59059531,59059506,1,RJII,Talk:Anarchist communism,/* RadicalMallard deleting Criticism section and links [http://en.wikipedia.org/w/index.php?title=Anarchist_communism&diff=59046404&oldid=59045021] */
2006-06-17T04:23:42+00:00,59059506,59058916,1,RJII,Talk:Anarchist communism,/* RadicalMallard deleting Criticism section and links [http://en.wikipedia.org/w/index.php?title=Anarchist_communism&diff=59046404&oldid=59045021] */
2006-06-17T04:18:23+00:00,59058916,59058674,1,RJII,Talk:Anarchist communism,/* RadicalMallard deleting Criticism section and links */
2006-06-17T04:16:22+00:00,59058674,59058570,1,RJII,Talk:Anarchist communism,/* RadicalMallard deleting Criticism section and links */
2006-06-17T04:15:20+00:00,59058570,56325828,1,RJII,Talk:Anarchist communism,
2006-06-17T03:40:23+00:00,59054605,59053526,1,RJII,Wikipedia:Articles for deletion/Responses to Objectivism,/* [[Responses to Objectivism]] */
2006-06-17T03:38:29+00:00,59054356,59053758,1,RJII,Talk:Objectivism,/* Deleted self-published source */
2006-06-17T03:23:33+00:00,59052448,59052376,1,RJII,Talk:Objectivism,/* Deleted self-published source */
2006-06-17T03:23:06+00:00,59052376,59050804,1,RJII,Talk:Objectivism,/* Deleted self-published source */
2006-06-17T03:19:33+00:00,59051953,59051124,1,RJII,Wikipedia:Articles for deletion/Responses to Objectivism,/* [[Responses to Objectivism]] */
2006-06-17T03:12:33+00:00,59051188,0,1,RJII,Talk:Responses to Objectivism,
2006-06-17T03:11:33+00:00,59051085,59032165,1,RJII,Responses to Objectivism,/* Is Objectivism a cult? */ deleted self-published source by Professor Parrot. see [[WP:V]]  ..not a credible source.
2006-06-17T03:08:50+00:00,59050804,59050769,1,RJII,Talk:Objectivism,/* Deleted self-published source */
2006-06-17T03:08:34+00:00,59050769,59050336,1,RJII,Talk:Objectivism,
2006-06-17T03:04:28+00:00,59050336,59048470,1,RJII,Talk:Objectivism,/* Postponing large edits? */
2006-06-17T02:59:58+00:00,59049858,59046701,1,RJII,Objectivism,/* Is Objectivism a cult? */ deleted stuff from Parrot. the source is self-published. not a credible source according to [[WP:V]]
2006-06-17T02:50:42+00:00,59048898,59046404,1,RJII,Anarchist communism,rv to RJII. Criticism section has nothing to do with Bryan Caplan or anarcho-capitalism.  and do not delete critical external links.
2006-06-17T02:46:46+00:00,59048470,59048030,1,RJII,Talk:Objectivism,/* LGagnon's constant accusations of Fascism */
2006-06-17T02:42:41+00:00,59048030,59044179,1,RJII,Talk:Objectivism,/* LGagnon's constant accusations of Fascism */
2006-06-17T02:36:19+00:00,59047307,59046900,1,RJII,Talk:Monopoly,/* Coercive monopoly merge? */
2006-06-17T02:32:41+00:00,59046900,59046622,1,RJII,Talk:Monopoly,/* Coercive monopoly merge? */
2006-06-17T02:29:51+00:00,59046622,59046413,1,RJII,Talk:Monopoly,/* Coercive monopoly merge? */
2010-02-12T04:53:13+00:00,343490875,342256607,1,Can_I_touch_it_,User talk:Can I touch it?,/* Sockpuppetry case */
2010-02-06T07:54:27+00:00,342256607,342249791,1,Can_I_touch_it_,User talk:Can I touch it?,/* Sockpuppetry case */
2010-02-05T23:51:18+00:00,342194619,342190202,1,Can_I_touch_it_,User talk:Can I touch it?,/* Blocked: Edit warring on Classical liberalism */
2010-02-05T23:25:30+00:00,342190202,342189321,1,Can_I_touch_it_,User talk:Can I touch it?,/* Blocked: Edit warring on Classical liberalism */
2010-02-05T23:20:17+00:00,342189321,342188075,1,Can_I_touch_it_,User talk:Can I touch it?,/* Blocked: Edit warring on Classical liberalism */
2010-02-05T22:58:47+00:00,342185538,342184867,1,Can_I_touch_it_,User talk:Can I touch it?,/* Blocked: Edit warring on Classical liberalism */
2010-02-05T22:50:41+00:00,342184098,342178812,1,Can_I_touch_it_,User talk:Can I touch it?,/* Blocked: Edit warring on Classical liberalism */
2010-02-05T22:07:15+00:00,342176108,342175217,1,Can_I_touch_it_,Wikipedia:Administrators' noticeboard/Edit warring,/* User:Can I touch it? reported by The Four Deuces (talk) (Result: ) */
2010-02-05T21:56:10+00:00,342174137,342173221,1,Can_I_touch_it_,Wikipedia:Administrators' noticeboard/Edit warring,/* User:Can I touch it? reported by The Four Deuces (talk) (Result: ) */
2010-02-05T21:51:07+00:00,342173221,342170848,1,Can_I_touch_it_,Wikipedia:Administrators' noticeboard/Edit warring,/* User:Can I touch it? reported by The Four Deuces (talk) (Result: ) */
2010-02-05T21:47:39+00:00,342172578,342171084,1,Can_I_touch_it_,User talk:Can I touch it?,/* February 2010 */
2010-02-05T21:23:04+00:00,342168241,342162807,1,Can_I_touch_it_,Classical liberalism,/* History */ Locke's private property philosophy is essential
2010-02-05T21:07:20+00:00,342165456,342164669,1,Can_I_touch_it_,User talk:Can I touch it?,/* February 2010 */
2010-02-05T21:02:29+00:00,342164669,342164482,1,Can_I_touch_it_,User talk:Can I touch it?,/* February 2010 */
2010-02-05T21:01:36+00:00,342164482,342163875,1,Can_I_touch_it_,User talk:Can I touch it?,/* February 2010 */
2010-02-05T20:59:14+00:00,342164023,341214675,1,Can_I_touch_it_,User talk:Jarkeld,
2010-02-05T20:56:09+00:00,342163488,342163239,1,Can_I_touch_it_,User talk:Can I touch it?,/* February 2010 */
2010-02-05T20:54:50+00:00,342163239,342162986,1,Can_I_touch_it_,User talk:Can I touch it?,/* February 2010 */
2010-02-05T20:51:54+00:00,342162690,342161881,1,Can_I_touch_it_,User talk:Snowded,/* Don't edit disruptively */
2010-02-05T20:47:09+00:00,342161881,342121568,1,Can_I_touch_it_,User talk:Snowded,
2010-02-05T20:41:38+00:00,342160868,341641625,1,Can_I_touch_it_,Limited government,[[WP:UNDO|Undid]] revision 341641625 by [[Special:Contributions/129.22.126.116|129.22.126.116]] ([[User talk:129.22.126.116|talk]]) No reason to delete what the source says
2010-02-05T20:35:04+00:00,342159698,342116027,1,Can_I_touch_it_,Classical liberalism,"putting Hobbes in the list. Source said he had a ""major impact"" on classical liberalism. And he's talked about in the article, so his name should be here."
2010-02-05T20:29:54+00:00,342158742,342158646,1,Can_I_touch_it_,Talk:Classical liberalism,"/* Sources for Locke supporting minimized government intervention (""small gov,"" ""limited gov,"" etc) */"
2010-02-05T20:29:24+00:00,342158646,342101300,1,Can_I_touch_it_,Talk:Classical liberalism,"/* Sources for Locke supporting minimized government intervention (""small gov,"" ""limited gov,"" etc) */"
2010-02-05T03:57:02+00:00,342034243,342032970,1,Can_I_touch_it_,Talk:Classical liberalism,"/* Sources for Locke supporting minimized government intervention (""small gov,"" ""limited gov,"" etc) */"
2010-02-05T03:56:23+00:00,342034158,342033168,1,Can_I_touch_it_,Classical liberalism,[[WP:UNDO|Undid]] revision 342033168 by [[Special:Contributions/The Four Deuces|The Four Deuces]] ([[User talk:The Four Deuces|talk]]) What you mean? Adam Smith not being discussed on talk page.
2010-02-05T03:37:20+00:00,342031130,342028230,1,Can_I_touch_it_,Classical liberalism,Putting Adam Smith here. He's even more discussed in this article. His picture is even in it. So naturally his named should be mentioned.
2010-02-05T03:33:54+00:00,342030590,342030424,1,Can_I_touch_it_,Talk:Classical liberalism,"/* Sources for Locke supporting minimized government intervention (""small gov,"" ""limited gov,"" etc) */"
2010-02-05T03:32:51+00:00,342030424,342019298,1,Can_I_touch_it_,Talk:Classical liberalism,"/* Sources for Locke supporting minimized government intervention (""small gov,"" ""limited gov,"" etc) */"
2010-02-05T00:12:55+00:00,341997778,341335148,1,Can_I_touch_it_,Classical liberalism,"John Locke is said below to be a major contributors to classical liberalisms ""formulation,"" along with Adam Smith.   Therefore he certainly ought to be noted in this sentence."
2010-02-05T00:09:17+00:00,341997140,341996798,1,Can_I_touch_it_,Talk:Classical liberalism,"/* Sources for Locke supporting minimized government intervention (""small gov,"" ""limited gov,"" etc) */"
2010-02-05T00:07:23+00:00,341996798,341847140,1,Can_I_touch_it_,Talk:Classical liberalism,"/* Sources for Locke supporting minimized government intervention (""small gov,"" ""limited gov,"" etc) */"
2010-02-04T01:21:58+00:00,341799826,341753185,1,Can_I_touch_it_,Talk:Classical liberalism,"/* Sources for Locke supporting minimized government intervention (""small gov,"" ""limited gov,"" etc) */"
2010-02-03T17:52:10+00:00,341718008,341688998,1,Can_I_touch_it_,Talk:Classical liberalism,"/* Sources for Locke supporting minimized government intervention (""small gov,"" ""limited gov,"" etc) */"
2010-02-03T08:21:09+00:00,341646753,341644153,1,Can_I_touch_it_,User talk:Yorkshirian,
2010-02-03T08:01:33+00:00,341645114,341635522,1,Can_I_touch_it_,Talk:Classical liberalism,"/* Sources for Locke supporting minimized government intervention (""small gov,"" ""limited gov,"" etc) */"
2010-02-03T02:03:36+00:00,341601576,341594181,1,Can_I_touch_it_,Talk:Classical liberalism,"/* Sources for Locke supporting minimized government intervention (""small gov,"" ""limited gov,"" etc) */"
2010-02-03T01:03:03+00:00,341591727,341591451,1,Can_I_touch_it_,Talk:Classical liberalism,"/* Sources for Locke supporting minimized government intervention (""small gov,"" ""limited gov,"" etc) */"
2010-02-03T01:01:30+00:00,341591451,341591282,1,Can_I_touch_it_,Talk:Classical liberalism,"/* Sources for Locke supporting minimized government intervention (""small gov,"" ""limited gov,"" etc) */"
2010-02-03T01:00:28+00:00,341591282,341519529,1,Can_I_touch_it_,Talk:Classical liberalism,"/* Sources for Locke supporting minimized government intervention (""small gov,"" ""limited gov,"" etc) */"
2010-02-02T17:51:23+00:00,341513071,341511172,1,Can_I_touch_it_,Talk:Classical liberalism,"/* Sources for Locke supporting minimized government intervention (""small gov,"" ""limited gov,"" etc) */"
2010-02-02T17:40:22+00:00,341511172,341510722,1,Can_I_touch_it_,Talk:Classical liberalism,"/* Sources for Locke supporting minimized government intervention (""small gov,"" ""limited gov,"" etc) */"
2010-02-02T17:37:45+00:00,341510722,341508765,1,Can_I_touch_it_,Talk:Classical liberalism,"/* Sources for Locke supporting minimized government intervention (""small gov,"" ""limited gov,"" etc) */"
2010-02-02T17:24:04+00:00,341508331,341508054,1,Can_I_touch_it_,Talk:Classical liberalism,"/* Sources for Locke supporting minimized government intervention (""small gov,"" ""limited gov,"" etc) */"
2010-02-02T17:22:33+00:00,341508054,341507817,1,Can_I_touch_it_,Talk:Classical liberalism,"/* Sources for Locke supporting minimized government intervention (""small gov,"" ""limited gov,"" etc) */"
2010-02-02T17:21:22+00:00,341507817,341507156,1,Can_I_touch_it_,Talk:Classical liberalism,"/* Sources for Locke supporting minimized government intervention (""small gov,"" ""limited gov,"" etc) */"
2010-02-02T17:17:38+00:00,341507156,341505057,1,Can_I_touch_it_,Talk:Classical liberalism,"/* Sources for Locke supporting minimized government intervention (""small gov,"" ""limited gov,"" etc) */"
2010-02-02T16:56:50+00:00,341503485,341499770,1,Can_I_touch_it_,Talk:Classical liberalism,"/* Sources for Locke supporting minimized government intervention (""small gov,"" ""limited gov,"" etc) */"
2010-02-01T20:34:31+00:00,341338017,341335419,1,Can_I_touch_it_,Talk:Classical liberalism,"/* Sources for Locke supporting minimized government intervention (""small gov,"" ""limited gov,"" etc) */"
2010-02-01T18:30:26+00:00,341315446,341313915,1,Can_I_touch_it_,Talk:Classical liberalism,"/* Sources for Locke supporting minimized government intervention (""small gov,"" ""limited gov,"" etc) */"
2010-02-01T18:21:29+00:00,341313915,341313685,1,Can_I_touch_it_,Talk:Classical liberalism,"/* Sources for Locke supporting minimized government intervention (""small gov,"" ""limited gov,"" etc) */"
2010-02-01T18:20:07+00:00,341313685,341312885,1,Can_I_touch_it_,Talk:Classical liberalism,"/* Sources for Locke supporting minimized government intervention (""small gov,"" ""limited gov,"" etc) */"
2010-02-01T18:14:44+00:00,341312701,341312547,1,Can_I_touch_it_,Talk:Classical liberalism,/* Sources for Locke being VERY important to classical liberalism */
2010-02-01T18:13:39+00:00,341312547,341311528,1,Can_I_touch_it_,Talk:Classical liberalism,"/* Sources for Locke supporting minimized government intervention (""small gov,"" ""limited gov,"" etc) */"
2010-02-01T18:07:30+00:00,341311528,341310873,1,Can_I_touch_it_,Talk:Classical liberalism,"/* Sources for Locke supporting minimized government intervention (""small gov,"" ""limited gov,"" etc) */"
2010-02-01T18:03:37+00:00,341310873,341309232,1,Can_I_touch_it_,Talk:Classical liberalism,/* Sources for Locke being VERY important to classical liberalism */
2010-02-01T17:54:16+00:00,341309232,341308129,1,Can_I_touch_it_,Talk:Classical liberalism,"/* Sources for Locke supporting minimized government intervention (""small gov,"" ""limited gov,"" etc) */"
2010-02-01T17:51:02+00:00,341308719,341307107,1,Can_I_touch_it_,User talk:Can I touch it?,/* Your recent edits */
2010-02-01T17:47:22+00:00,341308129,341307832,1,Can_I_touch_it_,Talk:Classical liberalism,"/* Sources for Locke supporting minimized government intervention (""small gov,"" ""limited gov,"" etc) */"
2010-02-01T17:41:09+00:00,341307107,341306800,1,Can_I_touch_it_,User talk:Can I touch it?,/* Your recent edits */
2010-02-01T17:38:18+00:00,341306639,341305823,1,Can_I_touch_it_,Talk:Classical liberalism,/* Sources for Locke being VERY important to classical liberalism */
2010-02-01T17:33:24+00:00,341305823,341305589,1,Can_I_touch_it_,Talk:Classical liberalism,/* Sources for Locke being VERY important to classical liberalism */
2010-02-01T17:24:05+00:00,341304313,341303995,1,Can_I_touch_it_,Talk:Classical liberalism,/* Sources for Locke being VERY important to classical liberalism */
2010-02-01T17:22:08+00:00,341303995,341277375,1,Can_I_touch_it_,Talk:Classical liberalism,/* Sources for Locke being VERY important to classical liberalism */
2010-01-31T21:22:45+00:00,341151750,341150840,1,Can_I_touch_it_,Talk:Classical liberalism,/* Locke */
2010-01-31T21:17:55+00:00,341150840,341150494,1,Can_I_touch_it_,Talk:Classical liberalism,/* Locke */
2010-01-31T21:15:50+00:00,341150494,341149693,1,Can_I_touch_it_,Talk:Classical liberalism,/* Locke */
2010-01-31T21:08:29+00:00,341149295,341148999,1,Can_I_touch_it_,Talk:Classical liberalism,/* Locke */
2010-01-31T21:06:33+00:00,341148999,341148743,1,Can_I_touch_it_,Talk:Classical liberalism,/* Locke */
2010-01-31T21:03:57+00:00,341148577,341148197,1,Can_I_touch_it_,Talk:Classical liberalism,/* Locke */
2010-01-31T21:01:43+00:00,341148197,341147736,1,Can_I_touch_it_,Talk:Classical liberalism,/* Locke */
2010-01-31T20:55:48+00:00,341147248,341146688,1,Can_I_touch_it_,Talk:Classical liberalism,/* Sources for Locke being VERY important to classical liberalism */
2010-01-31T20:52:18+00:00,341146688,341146359,1,Can_I_touch_it_,Talk:Classical liberalism,/* Sources for Locke being VERY important to classical liberalism */
2010-01-31T20:50:13+00:00,341146359,341146305,1,Can_I_touch_it_,Talk:Classical liberalism,/* Sources for Locke being VERY important to classical liberalism */
2010-01-31T20:49:50+00:00,341146305,341146141,1,Can_I_touch_it_,Talk:Classical liberalism,/* Sources for Locke being important to classical liberalism */
2010-01-31T20:48:53+00:00,341146141,341146081,1,Can_I_touch_it_,Talk:Classical liberalism,/* Sources for Locke being important to classical liberalism */
2010-01-31T20:47:35+00:00,341145911,341145493,1,Can_I_touch_it_,Talk:Classical liberalism,/* Sources for Locke being important to classical liberalism */
2010-01-31T20:43:49+00:00,341145327,341144024,1,Can_I_touch_it_,Talk:Classical liberalism,/* Locke */
2010-01-31T20:42:57+00:00,341145199,341141964,1,Can_I_touch_it_,User talk:Can I touch it?,/* January 2010 */
2010-01-31T20:35:41+00:00,341144024,341143650,1,Can_I_touch_it_,Talk:Classical liberalism,/* Locke */
2010-01-31T20:30:46+00:00,341143148,341142778,1,Can_I_touch_it_,Talk:Classical liberalism,/* Locke */
2010-01-31T20:28:43+00:00,341142778,341142086,1,Can_I_touch_it_,Talk:Classical liberalism,/* Locke */
2010-01-31T20:23:57+00:00,341141964,341141913,1,Can_I_touch_it_,User talk:Can I touch it?,/* January 2010 */
2010-01-31T20:23:39+00:00,341141913,341141563,1,Can_I_touch_it_,User talk:Can I touch it?,/* January 2010 */
2010-01-31T20:20:58+00:00,341141472,341133890,1,Can_I_touch_it_,Talk:Classical liberalism,
2010-01-31T20:17:12+00:00,341140845,341140319,1,Can_I_touch_it_,User talk:Can I touch it?,/* January 2010 */
2010-01-31T20:11:51+00:00,341139876,341112893,1,Can_I_touch_it_,Federal Reserve,noting the dividend is limited to 6%
2010-01-31T20:08:37+00:00,341139332,341137716,1,Can_I_touch_it_,User talk:Can I touch it?,/* January 2010 */
2010-01-31T20:03:23+00:00,341138399,341137515,1,Can_I_touch_it_,Classical liberalism,The most major names Locke and Smith ought to be mentioned.
2010-01-31T19:59:15+00:00,341137716,341137629,1,Can_I_touch_it_,User talk:Can I touch it?,/* January 2010 */
2010-01-31T19:58:47+00:00,341137629,341137512,1,Can_I_touch_it_,User talk:Can I touch it?,/* January 2010 */
2010-01-31T19:58:03+00:00,341137515,341136201,1,Can_I_touch_it_,Classical liberalism,contradicts the article
2010-01-31T19:55:40+00:00,341137141,341055198,1,Can_I_touch_it_,User talk:Can I touch it?,/* January 2010 */
2010-01-31T19:48:14+00:00,341135880,341135621,1,Can_I_touch_it_,Classical liberalism,
2010-01-31T19:46:40+00:00,341135621,340831261,1,Can_I_touch_it_,Classical liberalism,"As the article explains it is the result of hundreds of years of development. In the History section of this article, John Locke and Adam Smith are said to be the basis of it."
2010-01-31T19:35:48+00:00,341133890,341086709,1,Can_I_touch_it_,Talk:Classical liberalism,/* Trying to get an explanation on what problem some who are repeatedly deleting have with the text */
2010-01-30T21:11:33+00:00,340965039,340959151,1,Can_I_touch_it_,User talk:Can I touch it?,/* January 2010 */
2010-01-30T20:15:35+00:00,340956153,340955387,1,Can_I_touch_it_,Talk:Classical liberalism,/* Trying to get an explanation on what problem some who are repeatedly deleting have with the text */
2010-01-30T20:06:53+00:00,340954675,340891121,1,Can_I_touch_it_,Talk:Classical liberalism,/* Trying to get an explanation on what problem some who are repeatedly deleting have with the text */
2010-01-30T08:59:39+00:00,340868729,340867693,1,Can_I_touch_it_,Talk:Classical liberalism,/* Trying to get an explanation on what problem some who are repeatedly deleting have with the text */
2010-01-30T08:32:53+00:00,340866576,340866460,1,Can_I_touch_it_,Talk:Classical liberalism,/* New proposal */
2010-01-30T08:31:33+00:00,340866460,340865919,1,Can_I_touch_it_,Talk:Classical liberalism,/* Trying to get an explanation on what problem some who are repeatedly deleting have with the text */
2010-01-30T08:23:06+00:00,340865728,340865350,1,Can_I_touch_it_,Talk:Classical liberalism,/* Trying to get an explanation on what problem some who are repeatedly deleting have with the text */
2010-01-30T08:17:03+00:00,340865214,340864952,1,Can_I_touch_it_,Talk:Classical liberalism,/* Trying to get an explanation on what problem some who are repeatedly deleting have with the text */
2010-01-30T07:59:21+00:00,340863570,340862261,1,Can_I_touch_it_,Talk:Classical liberalism,/* Trying to get an explanation on what problem some who are repeatedly deleting have with the text */
2010-01-30T07:53:02+00:00,340863013,340862519,1,Can_I_touch_it_,User talk:Can I touch it?,/* Welcome! */
2010-01-30T07:42:12+00:00,340862073,340861285,1,Can_I_touch_it_,Talk:Classical liberalism,/* Calling Rick Norwood */
2010-01-30T07:33:25+00:00,340861285,340860773,1,Can_I_touch_it_,Talk:Classical liberalism,/* New proposal */
2010-01-30T07:30:32+00:00,340861023,340854807,1,Can_I_touch_it_,User talk:Can I touch it?,/* Draft - 3RR is not an entitlement */
2010-01-30T07:27:25+00:00,340860773,340855833,1,Can_I_touch_it_,Talk:Classical liberalism,/* New proposal */
2010-01-30T02:31:49+00:00,340834266,340834173,1,Can_I_touch_it_,Talk:Classical liberalism,/* Calling Rick Norwood */
2010-01-30T02:31:03+00:00,340834173,340834152,1,Can_I_touch_it_,Talk:Classical liberalism,/* Calling Rick Norwood */
2010-01-30T02:30:50+00:00,340834152,340831398,1,Can_I_touch_it_,Talk:Classical liberalism,/* Calling Rick Norwood */
2010-01-30T01:55:28+00:00,340830040,340829125,1,Can_I_touch_it_,Classical liberalism,"/* Overview */ deleted a couple extraneous words, obviously a typo.  Is this what you meant by ""bad grammar and usage""?   Work with  other editors. Don't just revert with vague claims."
2010-01-30T01:48:28+00:00,340829125,340406503,1,Can_I_touch_it_,Classical liberalism,No explanation of exactly what is wrong with this entry has been given. You who are reverting need to explain your edits instead of edit warring.
2010-01-30T01:44:31+00:00,340828542,340828363,1,Can_I_touch_it_,Talk:Classical liberalism,/* New proposal */
2010-01-30T01:43:15+00:00,340828363,340591263,1,Can_I_touch_it_,Talk:Classical liberalism,/* Calling Rick Norwood */
2010-01-30T01:39:34+00:00,340827865,340663655,1,Can_I_touch_it_,User talk:Can I touch it?,/* Draft - 3RR is not an entitlement */
2010-01-27T22:41:20+00:00,340419862,340417370,1,Can_I_touch_it_,User talk:Can I touch it?,/* Draft - 3RR is not an entitlement */
2010-01-27T22:24:21+00:00,340417081,340416346,1,Can_I_touch_it_,Talk:Classical liberalism,/* Calling Rick Norwood */
2010-01-27T22:21:55+00:00,340416611,340416570,1,Can_I_touch_it_,User talk:Can I touch it?,/* Draft - 3RR is not an entitlement */
2010-01-27T22:21:38+00:00,340416570,340416522,1,Can_I_touch_it_,User talk:Can I touch it?,/* Draft - 3RR is not an entitlement */
2010-01-27T22:21:18+00:00,340416522,340416254,1,Can_I_touch_it_,User talk:Can I touch it?,/* Classical liberalism */
2010-01-27T22:20:27+00:00,340416346,340416189,1,Can_I_touch_it_,Talk:Classical liberalism,/* Calling Rick Norwood */
2010-01-27T22:19:41+00:00,340416189,339495866,1,Can_I_touch_it_,Talk:Classical liberalism,/* New proposal */ Calling Rick Norwood
2010-01-27T22:09:07+00:00,340414219,340414094,1,Can_I_touch_it_,User talk:Can I touch it?,/* Classical liberalism */
2010-01-27T22:07:33+00:00,340413919,340413825,1,Can_I_touch_it_,User talk:Can I touch it?,/* Classical liberalism */
2010-01-27T22:07:05+00:00,340413825,340413696,1,Can_I_touch_it_,User talk:Can I touch it?,/* Classical liberalism */
2010-01-27T22:06:16+00:00,340413696,340413557,1,Can_I_touch_it_,User talk:Can I touch it?,/* Classical liberalism */
2010-01-27T22:05:35+00:00,340413557,340412483,1,Can_I_touch_it_,User talk:Can I touch it?,/* Classical liberalism */
2010-01-27T21:52:03+00:00,340410931,340409909,1,Can_I_touch_it_,User talk:Snowded,
2010-01-27T21:47:54+00:00,340410148,340410067,1,Can_I_touch_it_,User talk:Can I touch it?,
2010-01-27T21:47:28+00:00,340410067,340407867,1,Can_I_touch_it_,User talk:Can I touch it?,[[WP:UNDO|Undid]] revision 340407867 by [[Special:Contributions/Can I touch it?|Can I touch it?]] ([[User talk:Can I touch it?|talk]]) Undoing hypocritical message from an apparent prankster
2010-01-27T21:45:47+00:00,340409762,340409481,1,Can_I_touch_it_,User talk:Snowded,"You're intent to edit war aren't you?  This is a notice so you can correct your behavior. You've reverted twice, both in classical liberalism and here."
2010-01-27T21:43:24+00:00,340409300,340408967,1,Can_I_touch_it_,User talk:Snowded,[[WP:UNDO|Undid]] revision 340408967 by [[Special:Contributions/Snowded|Snowded]] ([[User talk:Snowded|talk]]) You're being disruptive.
2010-01-27T21:38:21+00:00,340408279,340408214,1,Can_I_touch_it_,User talk:Snowded,/* You're edit warring on classical liberalism */
2010-01-27T21:38:02+00:00,340408214,340159536,1,Can_I_touch_it_,User talk:Snowded,
2010-01-27T21:36:19+00:00,340407867,340406721,1,Can_I_touch_it_,User talk:Can I touch it?,/* Classical liberalism */
2010-01-27T21:22:36+00:00,340405406,340404042,1,Can_I_touch_it_,Classical liberalism,Don't be hypocritical or disingenuous. Don't tell people not to edit war while you yourself are making a revert.
2010-01-27T21:11:23+00:00,340403439,340343482,1,Can_I_touch_it_,Classical liberalism,Revert. Any good faith Wikipedia editor will simply adjust the grammar if he sees a problem with it.
2010-01-27T03:23:10+00:00,340270210,339725920,1,Can_I_touch_it_,Classical liberalism,[[WP:UNDO|Undid]] revision 338550104 by [[Special:Contributions/Rick Norwood|Rick Norwood]] ([[User talk:Rick Norwood|talk]]) put back in the sourced thing about Locke
2010-01-23T04:59:42+00:00,339483729,339482125,1,Can_I_touch_it_,Talk:Classical liberalism,/* New proposal */
2010-01-23T03:47:47+00:00,339475396,339473693,1,Can_I_touch_it_,Talk:Classical liberalism,/* New proposal */
2010-01-23T03:09:35+00:00,339470960,339400283,1,Can_I_touch_it_,Talk:Classical liberalism,/* New proposal */
2010-01-22T19:42:44+00:00,339399229,339396947,1,Can_I_touch_it_,Talk:Classical liberalism,/* New proposal */
2010-01-22T19:00:30+00:00,339391389,339391194,1,Can_I_touch_it_,Talk:Classical liberalism,/* New proposal */
2010-01-22T18:59:40+00:00,339391194,339389890,1,Can_I_touch_it_,Talk:Classical liberalism,/* New proposal */
2010-01-22T18:31:37+00:00,339386411,339385497,1,Can_I_touch_it_,Talk:Classical liberalism,/* New proposal */
2010-01-22T18:25:40+00:00,339385497,339384642,1,Can_I_touch_it_,Talk:Classical liberalism,/* New proposal */
2010-01-22T18:20:31+00:00,339384642,339384028,1,Can_I_touch_it_,Talk:Classical liberalism,/* New proposal */
2010-01-22T18:16:52+00:00,339384028,339382900,1,Can_I_touch_it_,Talk:Classical liberalism,/* New proposal */
2010-01-22T18:09:43+00:00,339382900,339380946,1,Can_I_touch_it_,Talk:Classical liberalism,/* New proposal */
2010-01-22T17:58:14+00:00,339380946,339380531,1,Can_I_touch_it_,Talk:Classical liberalism,/* New proposal */
2010-01-22T17:55:45+00:00,339380531,339379540,1,Can_I_touch_it_,Talk:Classical liberalism,/* New proposal */
2010-01-22T17:49:45+00:00,339379540,339379030,1,Can_I_touch_it_,Talk:Classical liberalism,/* New proposal */
2010-01-22T17:45:41+00:00,339378837,339304078,1,Can_I_touch_it_,Talk:Classical liberalism,/* New proposal */
2010-01-22T02:31:46+00:00,339274664,339268230,1,Can_I_touch_it_,Talk:Classical liberalism,/* New proposal */
2010-01-22T01:47:52+00:00,339268230,339268170,1,Can_I_touch_it_,Talk:Classical liberalism,/* New proposal */
2010-01-22T01:47:29+00:00,339268170,339267696,1,Can_I_touch_it_,Talk:Classical liberalism,/* New proposal */
2010-01-22T01:44:24+00:00,339267696,339260264,1,Can_I_touch_it_,Talk:Classical liberalism,/* New proposal */
2010-01-21T21:06:59+00:00,339218539,339217279,1,Can_I_touch_it_,Talk:Classical liberalism,/* New proposal */
2010-01-21T20:59:30+00:00,339217279,339216979,1,Can_I_touch_it_,Talk:Classical liberalism,/* New proposal */
2010-01-21T20:57:52+00:00,339216979,339216120,1,Can_I_touch_it_,Talk:Classical liberalism,/* New proposal */
2010-01-21T20:53:28+00:00,339216120,339215931,1,Can_I_touch_it_,Talk:Classical liberalism,/* New proposal */
2010-01-21T20:52:30+00:00,339215931,339215764,1,Can_I_touch_it_,Talk:Classical liberalism,/* New proposal */
2010-01-21T20:51:35+00:00,339215764,339208215,1,Can_I_touch_it_,Talk:Classical liberalism,/* New proposal */
2010-01-21T05:36:17+00:00,339101142,339101017,1,Can_I_touch_it_,High-frequency Active Auroral Research Program,
2010-01-21T05:35:13+00:00,339101017,338757453,1,Can_I_touch_it_,High-frequency Active Auroral Research Program,cost
2010-01-21T05:13:25+00:00,339098871,338583248,1,Can_I_touch_it_,Capitalism,Tragedy of the commons is problem with socialism not capitalism.  Commons is public property. Capitalism is private property.
2010-01-21T02:22:02+00:00,339078479,339074215,1,Can_I_touch_it_,Talk:Classical liberalism,/* How to deal with the various uses of the phrase. */
2010-01-21T00:49:03+00:00,339064441,339064204,1,Can_I_touch_it_,Talk:Classical liberalism,/* John Locke */
2010-01-21T00:46:43+00:00,339064028,339061348,1,Can_I_touch_it_,Talk:Classical liberalism,/* How to deal with the various uses of the phrase. */
2010-01-21T00:07:55+00:00,339057729,339057638,1,Can_I_touch_it_,Talk:Classical liberalism,/* John Locke */
2010-01-21T00:07:18+00:00,339057638,339057274,1,Can_I_touch_it_,Talk:Classical liberalism,/* John Locke */
2010-01-20T23:29:32+00:00,339051456,339049080,1,Can_I_touch_it_,Talk:Classical liberalism,/* How to deal with the various uses of the phrase. */
2010-01-20T23:00:12+00:00,339046743,339046462,1,Can_I_touch_it_,Talk:Classical liberalism,/* How to deal with the various uses of the phrase. */
2010-01-20T22:58:38+00:00,339046462,339045592,1,Can_I_touch_it_,Talk:Classical liberalism,/* How to deal with the various uses of the phrase. */
2010-01-20T22:43:01+00:00,339043747,339043006,1,Can_I_touch_it_,Talk:Classical liberalism,/* How to deal with the various uses of the phrase. */
2010-01-20T22:38:44+00:00,339043006,339042193,1,Can_I_touch_it_,Talk:Classical liberalism,/* John Locke */
2010-01-20T22:34:30+00:00,339042193,339042177,1,Can_I_touch_it_,Talk:Classical liberalism,/* John Locke */
2010-01-20T22:33:43+00:00,339042032,339039443,1,Can_I_touch_it_,Talk:Classical liberalism,/* John Locke */
2010-01-20T22:21:43+00:00,339039692,338957576,1,Can_I_touch_it_,Liberalism,It's sourced. Locke is famous for being an advocate of limited government. Liberalism = liberty.  Liberty from what? Government. Therefore limit government power over the people.
2010-01-20T22:19:14+00:00,339039231,339038470,1,Can_I_touch_it_,Talk:Classical liberalism,/* How to deal with the various uses of the phrase. */
2010-01-19T22:51:08+00:00,338844449,338844384,1,Can_I_touch_it_,Talk:Classical liberalism,/* The lede should not contradict itself */
2010-01-19T21:01:13+00:00,338824198,338824056,1,Can_I_touch_it_,Limited government,
2010-01-19T21:00:32+00:00,338824056,338823876,1,Can_I_touch_it_,Limited government,
2010-01-19T20:59:40+00:00,338823876,338823671,1,Can_I_touch_it_,Limited government,
2010-01-19T20:58:35+00:00,338823671,337499827,1,Can_I_touch_it_,Limited government,
2010-01-19T20:36:19+00:00,338819151,338819071,1,Can_I_touch_it_,Liberalism,
2010-01-19T20:35:49+00:00,338819071,338770822,1,Can_I_touch_it_,Liberalism,Locked argued for limited government
2010-01-19T20:23:13+00:00,338816827,338816055,1,Can_I_touch_it_,Talk:Classical liberalism,/* Classical liberalism HAS to include 17th century liberalism */
2010-01-19T20:18:50+00:00,338816055,338815643,1,Can_I_touch_it_,Talk:Classical liberalism,/* Classical liberalism HAS to include 17th century liberalism */
2010-01-19T20:16:32+00:00,338815643,338814487,1,Can_I_touch_it_,Talk:Classical liberalism,/* Classical liberalism HAS to include 17th century liberalism */
2010-01-19T20:10:05+00:00,338814487,338814403,1,Can_I_touch_it_,Talk:Classical liberalism,/* Classical liberalism HAS to include 17th century liberalism */
2010-01-19T20:09:38+00:00,338814403,338812446,1,Can_I_touch_it_,Talk:Classical liberalism,/* Classical liberalism HAS to include 17th century liberalism */
2010-01-19T19:58:49+00:00,338812446,338811982,1,Can_I_touch_it_,Talk:Classical liberalism,/* Classical liberalism HAS to include 17th century liberalism */
2010-01-19T19:56:22+00:00,338811982,338811957,1,Can_I_touch_it_,Talk:Classical liberalism,/* John Locke */
2010-01-19T19:45:34+00:00,338810055,338809953,1,Can_I_touch_it_,Talk:Classical liberalism,/* Classical liberalism HAS to include 17th century liberalism */
2010-01-19T19:44:58+00:00,338809953,338809639,1,Can_I_touch_it_,Talk:Classical liberalism,/* Classical liberalism HAS to include 17th century liberalism */
2010-01-19T19:43:09+00:00,338809639,338809343,1,Can_I_touch_it_,Talk:Classical liberalism,/* Classical liberalism HAS to include 17th century liberalism */
2010-01-19T19:41:21+00:00,338809343,338809129,1,Can_I_touch_it_,Talk:Classical liberalism,/* Classical liberalism HAS to include 17th century liberalism */
2010-01-19T19:39:59+00:00,338809129,338804052,1,Can_I_touch_it_,Talk:Classical liberalism,/* Classical liberalism HAS to include 17th century liberalism */
2010-01-18T22:37:14+00:00,338636282,338636087,1,Can_I_touch_it_,Talk:Classical liberalism,/* Classical liberalism HAS to include 17th century liberalism */
2010-01-18T22:36:08+00:00,338636087,338635868,1,Can_I_touch_it_,Talk:Classical liberalism,/* Classical liberalism HAS to include 17th century liberalism */
2010-01-18T22:34:48+00:00,338635868,338623600,1,Can_I_touch_it_,Talk:Classical liberalism,/* Alphabet soup */
2010-01-18T22:18:47+00:00,338633277,338632751,1,Can_I_touch_it_,User talk:Can I touch it?,/* Classical liberalism */
2010-01-18T22:10:14+00:00,338631741,338631350,1,Can_I_touch_it_,User talk:Can I touch it?,/* Classical liberalism */
2010-01-18T21:54:34+00:00,338628716,338628511,1,Can_I_touch_it_,User talk:Can I touch it?,/* Classical liberalism */
2010-01-18T21:53:21+00:00,338628511,338628419,1,Can_I_touch_it_,User talk:Can I touch it?,/* Classical liberalism */
2010-01-18T21:52:50+00:00,338628419,338625650,1,Can_I_touch_it_,User talk:Can I touch it?,/* Classical liberalism */
2010-01-18T21:19:51+00:00,338622057,338621879,1,Can_I_touch_it_,Liberalism,
2010-01-18T21:19:01+00:00,338621879,338518159,1,Can_I_touch_it_,Liberalism,"Wasn't sourced that Locke laid the foundations of modern liberalism. Replaced with claim that laid the foundations of classical liberalism, with some sources."
2010-01-18T21:17:17+00:00,338621578,338621530,1,Can_I_touch_it_,Talk:Classical liberalism,/* John Locke */
2010-01-18T21:17:00+00:00,338621530,338621157,1,Can_I_touch_it_,Talk:Classical liberalism,/* John Locke */
2010-01-18T21:05:40+00:00,338619374,338619171,1,Can_I_touch_it_,Talk:Classical liberalism,/* Wikipedia editors need to write well. */ changed title of section
2010-01-18T21:04:24+00:00,338619171,338619073,1,Can_I_touch_it_,Talk:Classical liberalism,/* Wikipedia editors need to write well. */
2010-01-18T21:03:51+00:00,338619073,338618317,1,Can_I_touch_it_,Talk:Classical liberalism,/* Wikipedia editors need to write well. */
2010-01-18T20:59:43+00:00,338618317,338617445,1,Can_I_touch_it_,Talk:Classical liberalism,/* Wikipedia editors need to write well. */
2010-01-18T20:55:20+00:00,338617445,338617005,1,Can_I_touch_it_,Talk:Classical liberalism,/* Wikipedia editors need to write well. */
2010-01-18T20:52:58+00:00,338617005,338616557,1,Can_I_touch_it_,Talk:Classical liberalism,/* Wikipedia editors need to write well. */
2010-01-18T20:49:51+00:00,338616475,338616298,1,Can_I_touch_it_,User talk:Can I touch it?,/* Classical liberalism */
2010-01-18T20:48:50+00:00,338616295,338615058,1,Can_I_touch_it_,Talk:Classical liberalism,"/* Alphabet soup */ Rick Norwood, respond here explaining why you deleted this statement"
2010-01-18T20:43:32+00:00,338615313,338550104,1,Can_I_touch_it_,Classical liberalism,I did discuss on talk page. If you have a problem with entry then you discuss on the talk explaining what your dispute is.
2010-01-18T02:30:39+00:00,338480438,338474971,1,Can_I_touch_it_,Classical liberalism,"Classical liberalism begins with individuals such as John Locke.  (Before reverting, note that this is not in dispute. Everyone in talk admits that 17th century liberalism was combined with Smith"
2010-01-17T23:55:17+00:00,338457683,338457039,1,Can_I_touch_it_,Talk:Classical liberalism,/* Alphabet soup */
2010-01-17T23:50:35+00:00,338457039,338456092,1,Can_I_touch_it_,Talk:Classical liberalism,/* Alphabet soup */
2010-01-17T23:44:18+00:00,338456092,338456013,1,Can_I_touch_it_,Talk:Classical liberalism,/* Alphabet soup */
2010-01-17T23:43:49+00:00,338456013,338432868,1,Can_I_touch_it_,Talk:Classical liberalism,/* Alphabet soup */
2010-01-17T23:37:40+00:00,338455073,338278429,1,Can_I_touch_it_,Classical liberalism,[[WP:UNDO|Undid]] revision 338278429 by [[Special:Contributions/Lawrencekhoo|Lawrencekhoo]] ([[User talk:Lawrencekhoo|talk]]) No reason for AfD or reverting. Nothing here is in dispute.
2010-01-16T19:49:09+00:00,338229759,338229611,1,Can_I_touch_it_,Classical liberalism,
2010-01-16T19:48:13+00:00,338229611,338229463,1,Can_I_touch_it_,Classical liberalism,
2010-01-16T19:47:21+00:00,338229463,338229366,1,Can_I_touch_it_,Classical liberalism,
2010-01-16T19:46:50+00:00,338229366,338229161,1,Can_I_touch_it_,Classical liberalism,
2010-01-16T19:45:37+00:00,338229161,338229077,1,Can_I_touch_it_,Classical liberalism,
2010-01-16T19:45:05+00:00,338229077,338229032,1,Can_I_touch_it_,Classical liberalism,
2010-01-16T19:44:48+00:00,338229032,338228981,1,Can_I_touch_it_,Classical liberalism,
2010-01-16T19:44:30+00:00,338228981,338226651,1,Can_I_touch_it_,Classical liberalism,some sources
2010-01-16T19:34:11+00:00,338227345,338227310,1,Can_I_touch_it_,Talk:Classical liberalism,/* Classical liberalism is the same as 18th Century Liberalism ? */
2010-01-16T19:33:55+00:00,338227310,338226067,1,Can_I_touch_it_,Talk:Classical liberalism,/* Classical liberalism is the same as 18th Century Liberalism ? */
2010-01-16T19:29:42+00:00,338226651,338151946,1,Can_I_touch_it_,Classical liberalism,both views of what classical liberalism refers to need to be given equal weighting unless it can be shown that one is a minority view
2010-01-16T19:21:14+00:00,338225329,338224955,1,Can_I_touch_it_,Talk:Classical liberalism,/* Classical liberalism is the same as 18th Century Liberalism ? */
2010-01-16T19:18:58+00:00,338224955,338224381,1,Can_I_touch_it_,Talk:Classical liberalism,/* Classical liberalism is the same as 18th Century Liberalism ? */
2010-01-16T19:15:13+00:00,338224381,338200901,1,Can_I_touch_it_,Talk:Classical liberalism,/* The lede should not contradict itself */
2010-01-15T20:24:47+00:00,338056322,338056105,1,Can_I_touch_it_,Talk:Classical liberalism,/* The lede should not contradict itself */
2010-01-15T20:23:18+00:00,338056105,338056001,1,Can_I_touch_it_,Talk:Classical liberalism,/* The lede should not contradict itself */
2010-01-15T20:22:38+00:00,338056001,338053161,1,Can_I_touch_it_,Talk:Classical liberalism,/* The lede should not contradict itself */
2010-01-15T19:01:51+00:00,338042812,338042474,1,Can_I_touch_it_,Talk:Classical liberalism,/* The lede should not contradict itself */
2010-01-15T18:59:54+00:00,338042474,338040688,1,Can_I_touch_it_,Talk:Classical liberalism,/* The lede should not contradict itself */
2010-01-15T18:02:19+00:00,338033044,337969905,1,Can_I_touch_it_,Classical liberalism,"put back material, but changed to 18th to 19th century until settled"
2010-01-15T17:55:46+00:00,338031954,338031293,1,Can_I_touch_it_,Talk:Classical liberalism,/* The lede should not contradict itself */
2010-01-15T17:52:03+00:00,338031293,337969627,1,Can_I_touch_it_,Talk:Classical liberalism,/* The lede should not contradict itself */
2010-01-15T03:27:51+00:00,337931227,337919215,1,Can_I_touch_it_,Classical liberalism,
2010-01-15T01:51:14+00:00,337919215,337918982,1,Can_I_touch_it_,Classical liberalism,
2010-01-15T01:49:34+00:00,337918982,337916506,1,Can_I_touch_it_,Classical liberalism,Put back sentence I accidently deleted
2010-01-15T01:44:13+00:00,337918197,337917237,1,Can_I_touch_it_,Talk:Classical liberalism,/* The lede should not contradict itself */
2010-01-15T01:37:51+00:00,337917237,337917109,1,Can_I_touch_it_,Talk:Classical liberalism,/* The lede should not contradict itself */
2010-01-15T01:36:51+00:00,337917109,337916092,1,Can_I_touch_it_,Talk:Classical liberalism,/* The lede should not contradict itself */
2010-01-15T01:32:35+00:00,337916506,337913992,1,Can_I_touch_it_,Classical liberalism,
2010-01-15T01:16:15+00:00,337913992,337913919,1,Can_I_touch_it_,Classical liberalism,
2010-01-15T01:15:49+00:00,337913919,337913535,1,Can_I_touch_it_,Classical liberalism,links
2010-01-15T01:13:31+00:00,337913535,337913477,1,Can_I_touch_it_,Classical liberalism,
2010-01-15T01:13:09+00:00,337913477,337875735,1,Can_I_touch_it_,Classical liberalism,"Noted both uses of the term, trying not to give weight to one over the other since it hasn't been established that one use is rarer than the other."
2010-01-15T00:19:30+00:00,337903913,337903419,1,Can_I_touch_it_,Talk:Classical liberalism,/* The lede should not contradict itself */
2010-01-15T00:16:53+00:00,337903419,337896022,1,Can_I_touch_it_,Talk:Classical liberalism,/* The lede should not contradict itself */
2010-01-14T23:30:42+00:00,337894883,337894050,1,Can_I_touch_it_,Talk:Classical liberalism,/* The lede should not contradict itself */
2010-01-14T23:26:22+00:00,337894050,337890407,1,Can_I_touch_it_,Talk:Classical liberalism,/* The lede should not contradict itself */
2010-01-14T22:06:17+00:00,337879950,337879711,1,Can_I_touch_it_,Talk:Classical liberalism,/* The lede should not contradict itself */
2010-01-14T22:05:04+00:00,337879711,337877550,1,Can_I_touch_it_,Talk:Classical liberalism,/* The lede should not contradict itself */
2010-01-14T21:48:14+00:00,337876569,337867601,1,Can_I_touch_it_,Talk:Classical liberalism,/* The lede should not contradict itself */
2010-01-14T19:04:28+00:00,337846885,337845360,1,Can_I_touch_it_,Talk:Classical liberalism,/* The lede should not contradict itself */
2010-01-14T18:38:49+00:00,337842271,337840602,1,Can_I_touch_it_,Talk:Classical liberalism,/* The lede should not contradict itself */
2010-01-14T18:28:41+00:00,337840363,337839682,1,Can_I_touch_it_,Talk:Classical liberalism,/* The lede should not contradict itself */
2010-01-14T18:24:52+00:00,337839682,337838288,1,Can_I_touch_it_,Talk:Classical liberalism,/* The lede should not contradict itself */
2010-01-14T17:56:19+00:00,337834209,337810570,1,Can_I_touch_it_,Talk:Classical liberalism,/* The lede should not contradict itself */
2010-01-14T16:56:14+00:00,337823725,337811428,1,Can_I_touch_it_,Classical liberalism,"put back in consensus statement. See Talk.  The source does not say it classical liberalism differs from earlier liberalism, or that popular government is part of it."
2010-01-14T07:05:54+00:00,337755622,337755179,1,Can_I_touch_it_,Classical liberalism,not sourced
2010-01-14T07:01:48+00:00,337755179,337741981,1,Can_I_touch_it_,Classical liberalism,"in response to the POV template, Monstesquieu is a classical liberal and original liberal.  same thing."
2010-01-14T06:45:23+00:00,337753476,335934283,1,Can_I_touch_it_,User talk:Bobisbob2,
2010-01-14T00:42:56+00:00,337707690,337681494,1,Can_I_touch_it_,Classical liberalism,source
2010-01-13T17:36:42+00:00,337630588,337578490,1,Can_I_touch_it_,Classical liberalism,"Four Deuces, look at your edits. YOU'RE putting in popular government and taking out freedom of speech and press, not me.  And gold stuff is sourced as being an aspect of ""classical liberalism"""
2010-01-13T17:33:56+00:00,337630068,337629767,1,Can_I_touch_it_,Talk:Classical liberalism,/* The sourced is being removed and the unsourced being put back in */
2010-01-13T17:32:11+00:00,337629767,337576926,1,Can_I_touch_it_,Talk:Classical liberalism,/* The sourced is being removed and the unsourced being put back in */
2010-01-13T04:15:19+00:00,337533541,337532926,1,Can_I_touch_it_,Talk:Classical liberalism,/* The sourced is being removed and the unsourced being put back in */
2010-01-13T04:10:36+00:00,337532926,335947866,1,Can_I_touch_it_,Talk:Classical liberalism,
2010-01-13T03:59:29+00:00,337531430,337527612,1,Can_I_touch_it_,Classical liberalism,[[WP:UNDO|Undid]] revision 337527612 by [[Special:Contributions/The Four Deuces|The Four Deuces]] ([[User talk:The Four Deuces|talk]]) POV???  Not POV. It's straight from the sources.
2010-01-13T01:48:46+00:00,337513596,337512040,1,Can_I_touch_it_,Federal Reserve,
2010-01-13T01:39:07+00:00,337512040,337511932,1,Can_I_touch_it_,Federal Reserve,
2010-01-13T01:38:20+00:00,337511932,337511111,1,Can_I_touch_it_,Federal Reserve,
2010-01-13T01:33:19+00:00,337511111,337510902,1,Can_I_touch_it_,Federal Reserve,
2010-01-13T01:31:54+00:00,337510902,337391904,1,Can_I_touch_it_,Federal Reserve,
2010-01-13T00:06:07+00:00,337495803,337403525,1,Can_I_touch_it_,Classical liberalism,If that's true then you need a source for it.  You also deleted the sourced gold discussion without reason.
2010-01-12T07:02:00+00:00,337343880,337343288,1,Can_I_touch_it_,Classical liberalism,/* Overview */ reinserted gold standard discussion which was deleted
2010-01-12T06:56:57+00:00,337343288,337342823,1,Can_I_touch_it_,Classical liberalism,
2010-01-12T06:52:57+00:00,337342823,337328126,1,Can_I_touch_it_,Classical liberalism,"huh? The source doesn't say it differs from an earlier form of liberalism. There is no earlier form of liberalism. This is IT, the ""classical"""
2009-07-21T16:59:49+00:00,303367350,303333172,1,Can_I_touch_it_,Modern liberalism in the United States,"/* Liberal thinkers and leaders in the United States */ this article is about modern not classical liberalism, hence the title of the article. ... removing jefferson, madison.."
2009-07-19T23:28:15+00:00,303033609,303033495,1,Can_I_touch_it_,Classical liberalism,/* Gold standard */
2009-07-19T23:27:34+00:00,303033495,303024015,1,Can_I_touch_it_,Classical liberalism,/* Gold standard */
2009-07-19T23:11:44+00:00,303031221,303031154,1,Can_I_touch_it_,Gold standard,/* Free market gold standard versus government-mandated gold standard */
2009-07-19T23:11:11+00:00,303031154,303028882,1,Can_I_touch_it_,Gold standard,/* Theory */ Milton Friedman advocated a free market gold standard
2009-07-19T22:54:17+00:00,303028882,303028664,1,Can_I_touch_it_,Gold standard,
2009-07-19T22:52:47+00:00,303028664,303028589,1,Can_I_touch_it_,Gold standard,
2009-07-19T22:52:09+00:00,303028589,303028542,1,Can_I_touch_it_,Gold standard,[[WP:UNDO|Undid]] revision 303028542 by [[Special:Contributions/Can I touch it?|Can I touch it?]] ([[User talk:Can I touch it?|talk]])
2009-07-19T22:51:49+00:00,303028542,303026687,1,Can_I_touch_it_,Gold standard,gold standard may be public or private
2009-07-19T22:39:50+00:00,303026687,302647365,1,Can_I_touch_it_,Gold standard,Why is this here? A gold standard doesn't apply only to government issued currency.
2009-07-19T22:23:38+00:00,303024015,303017618,1,Can_I_touch_it_,Classical liberalism,Created gold standard section. Smith supported gold/silver standard.
2009-07-19T21:42:46+00:00,303017618,302991923,1,Can_I_touch_it_,Classical liberalism,someone removed gold standard
2009-03-08T19:47:10+00:00,275869774,275810894,1,Can_I_touch_it_,Classical liberalism,The source says gold standard is essential aspect of classical liberalism. I challenge you to find a classical liberal that was for fiat paper money.
2008-12-20T18:49:15+00:00,259204221,259202220,1,Can_I_touch_it_,Federal Reserve,/* Handling of The Great Depression */ friedman didnt want government control either
2008-12-20T18:36:32+00:00,259202220,259201639,1,Can_I_touch_it_,Federal Reserve,/* Handling of The Great Depression */ i dont see how you can extract this out of that news article.
2008-12-20T18:33:12+00:00,259201639,259201427,1,Can_I_touch_it_,Federal Reserve,"/* Handling of The Great Depression */ sorry, looks like someone already go to this"
2008-12-20T18:32:04+00:00,259201427,259065195,1,Can_I_touch_it_,Federal Reserve,/* Handling of The Great Depression */ important to note that Friedman was for the abolition of the Fed
2008-12-20T18:20:15+00:00,259199482,259035757,1,Can_I_touch_it_,Milton Friedman,opposed the idea of a Fed
2008-12-17T19:18:41+00:00,258624796,258618118,1,Can_I_touch_it_,Capitalism,
2008-12-17T18:42:26+00:00,258618118,258488909,1,Can_I_touch_it_,Capitalism,"not just ""chiefly"". we have to give definition of capitalism rather than definition for capitalist mixed economy."
2008-12-16T03:54:16+00:00,258283738,258283628,1,Can_I_touch_it_,Capitalism,
2008-12-16T03:53:42+00:00,258283628,258268043,1,Can_I_touch_it_,Capitalism,"source specifically says ""significant intervention.""   Anarcho-capitalism should not be linked to, but rather laissez-faire."
2008-12-15T20:31:47+00:00,258191835,258082681,1,Can_I_touch_it_,Capitalism,
2008-12-14T19:28:10+00:00,257957703,257957528,1,Can_I_touch_it_,Capitalism,
2008-12-14T19:27:09+00:00,257957528,257957379,1,Can_I_touch_it_,Capitalism,
2008-12-14T19:26:16+00:00,257957379,257957163,1,Can_I_touch_it_,Capitalism,
2008-12-14T19:25:01+00:00,257957163,257683874,1,Can_I_touch_it_,Capitalism,makes more sense
2008-12-12T21:47:47+00:00,257573769,257572960,1,Can_I_touch_it_,Milton Friedman,/* Criticism */
2008-12-12T21:42:54+00:00,257572960,257572198,1,Can_I_touch_it_,Milton Friedman,/* Criticism */
2008-12-12T21:38:08+00:00,257572198,257572065,1,Can_I_touch_it_,Milton Friedman,/* Criticism */
2008-12-12T21:37:20+00:00,257572065,256739282,1,Can_I_touch_it_,Milton Friedman,/* Criticism */
2008-12-12T20:52:31+00:00,257564343,246955265,1,Can_I_touch_it_,Economic liberalism,from the source
2008-12-12T20:49:15+00:00,257563789,257555317,1,Can_I_touch_it_,Classical liberalism,"this is just stupid, it's not sourced, and highlighting anarcho-capitalism is out of order"
2008-12-12T20:01:40+00:00,257555317,257555232,1,Can_I_touch_it_,Classical liberalism,
2008-12-12T20:01:06+00:00,257555232,257552210,1,Can_I_touch_it_,Classical liberalism,gold standard
2008-12-12T19:45:07+00:00,257552210,257551864,1,Can_I_touch_it_,Classical liberalism,
2008-12-12T19:43:27+00:00,257551864,257550389,1,Can_I_touch_it_,Classical liberalism,source says this
2008-12-12T19:36:03+00:00,257550389,257550242,1,Can_I_touch_it_,Classical liberalism,
2008-12-12T19:35:17+00:00,257550242,257549608,1,Can_I_touch_it_,Classical liberalism,
2008-12-12T19:32:01+00:00,257549608,257549390,1,Can_I_touch_it_,Classical liberalism,
2008-12-12T19:30:51+00:00,257549390,256568684,1,Can_I_touch_it_,Classical liberalism,i believe this represents the source
2008-12-12T19:21:33+00:00,257547641,257547539,1,Can_I_touch_it_,Capitalism,
2008-12-12T19:20:59+00:00,257547539,257546799,1,Can_I_touch_it_,Capitalism,removing this because capitalism is not even mentioned in the source which is being used to back this up
2008-12-12T19:17:00+00:00,257546799,257546572,1,Can_I_touch_it_,Capitalism,
2008-12-12T19:15:55+00:00,257546572,257546375,1,Can_I_touch_it_,Capitalism,
2008-12-12T19:14:58+00:00,257546375,257284329,1,Can_I_touch_it_,Capitalism,it's not restricted to capital goods but all means of production
2008-12-11T19:56:24+00:00,257333139,257103456,1,Can_I_touch_it_,Planned economy,not in the source
2008-12-09T20:27:35+00:00,256898929,256897585,1,Can_I_touch_it_,Capitalism,i dont see that in there. need a specific page number. government regulation of production and distribution is certainly not capitalism so what is meant by reglation?
2008-12-09T20:20:59+00:00,256897585,256811959,1,Can_I_touch_it_,Capitalism,if regulation is not minimal then it's a planned economy
2008-11-22T23:08:45+00:00,253482935,253482471,1,Can_I_touch_it_,Capitalism,
2008-11-22T23:06:02+00:00,253482471,253482252,1,Can_I_touch_it_,Capitalism,
2008-11-22T23:04:44+00:00,253482252,253481651,1,Can_I_touch_it_,Capitalism,
2008-11-22T23:01:20+00:00,253481651,253481426,1,Can_I_touch_it_,Capitalism,
2008-11-22T23:00:00+00:00,253481426,253481346,1,Can_I_touch_it_,Capitalism,
2008-11-22T22:59:34+00:00,253481346,253417880,1,Can_I_touch_it_,Capitalism,
2008-11-19T20:00:24+00:00,252840896,252839305,1,Can_I_touch_it_,Capitalism,
2008-11-19T19:52:17+00:00,252839305,252834577,1,Can_I_touch_it_,Capitalism,
2008-11-19T19:27:48+00:00,252834577,252833874,1,Can_I_touch_it_,Capitalism,
2008-11-19T19:24:31+00:00,252833874,252831790,1,Can_I_touch_it_,Capitalism,
2010-02-15T17:27:58+00:00,344237401,344237132,1,Caremerger,Wikipedia:Help desk,/* What to do about a malicious editor? */
2010-02-15T17:26:16+00:00,344237132,344237105,1,Caremerger,Wikipedia:Help desk,"/* What to do about a malicious editor? */ Too frustrating, too much technical work for no pay."
2010-02-15T17:11:01+00:00,344234630,344234393,1,Caremerger,Wikipedia:Help desk,/* What to do about a malicious editor? */ Thanx.
2010-02-15T16:59:13+00:00,344232656,344232420,1,Caremerger,Talk:Corporatism,/* Multi tags */ signed.
2010-02-15T16:56:49+00:00,344232259,344224383,1,Caremerger,Talk:Corporatism,/* Multi tags */ Persistence of ad hominem attacks by this individual are astonishing.
2010-02-15T16:51:39+00:00,344231419,344231333,1,Caremerger,Corporatism,
2010-02-15T16:51:12+00:00,344231333,344230859,1,Caremerger,Corporatism,internal link.
2010-02-15T16:48:25+00:00,344230859,344230592,1,Caremerger,Corporatism,internal link.
2010-02-15T16:46:56+00:00,344230592,344230203,1,Caremerger,Corporatism,internal link.
2010-02-15T16:44:36+00:00,344230203,344228759,1,Caremerger,Corporatism,Re-added the deleted summary--again.
2010-02-15T16:27:20+00:00,344227358,344225907,1,Caremerger,Wikipedia:Help desk,/* What to do about a malicious editor? */ new section
2010-02-15T16:16:34+00:00,344225610,344141551,1,Caremerger,Wikipedia:Help desk/Archives/2010 February 12,/* February 12 */ Help on the Corporatism page.
2010-02-15T15:58:54+00:00,344222753,344222185,1,Caremerger,Talk:Corporatism,/* Multi tags */
2010-02-15T15:51:19+00:00,344221479,343502325,1,Caremerger,User talk:Caremerger,/* Sockpuppetry case */ Nope
2010-02-15T15:48:34+00:00,344221044,344220944,1,Caremerger,Corporatism,"/* U.S. corporatism */ Justify the POV. The points are referenced, and valid."
2010-02-15T15:47:09+00:00,344220815,344220777,1,Caremerger,Corporatism,/* U.S. corporatism */ Not disputed.
2010-02-15T15:45:59+00:00,344220657,344220502,1,Caremerger,Corporatism,/* U.S. corporatism */ Cleared up any problems.
2010-02-15T15:44:56+00:00,344220502,344220395,1,Caremerger,Corporatism,/* U.S. corporatism */
2010-02-15T15:44:18+00:00,344220395,344220029,1,Caremerger,Corporatism,/* U.S. corporatism */
2010-02-15T15:41:59+00:00,344220029,344219916,1,Caremerger,Corporatism,Fix spacing.
2010-02-15T15:41:10+00:00,344219916,344139551,1,Caremerger,Corporatism,"/* Contemporary popular usage of the term corporatism */ No differentiation from ""popular""."
2010-02-15T15:38:08+00:00,344219485,344219077,1,Caremerger,Talk:Corporatism,/* Multi tags */ sign
2010-02-15T15:33:47+00:00,344218868,344218736,1,Caremerger,Talk:Corporatism,/* Multi tags */ Nope.
2010-02-15T15:15:03+00:00,344215973,344213428,1,Caremerger,Talk:Corporatism,"/* Multi tags */ ""sock puppet""? Biased motives."
2010-02-15T14:55:16+00:00,344213311,344123446,1,Caremerger,Talk:Corporatism,/* Multi tags */ Disgust.
2010-02-12T04:37:57+00:00,343489101,343480198,1,Caremerger,Corporatism,/* United States Corporatism: 1795-1886 */ Established framework.
2010-02-12T03:47:04+00:00,343482608,343481950,1,Caremerger,Talk:Corporatism,/* Multi tags */ Why still disputed?
2010-02-12T03:42:50+00:00,343481950,343461129,1,Caremerger,Talk:Corporatism,/* Multi tags */ Why still disputed?
2010-02-12T03:30:48+00:00,343480198,343470693,1,Caremerger,Corporatism,/* United States Corporatism: 1776-1787 */ references added.
2010-02-12T02:14:53+00:00,343468641,343467895,1,Caremerger,Corporatism,"Replaced ""counterpoised"" with its synonym ""opposed"" to avoid copyright violation."
2010-02-12T02:09:24+00:00,343467895,343467593,1,Caremerger,Corporatism,/* United States Corporatism: 1795-1886 */ Added summary statement to the paragraph.
2010-02-12T02:00:27+00:00,343466560,343466248,1,Caremerger,Corporatism,Moved the phrase to within the proper time frame.
2010-02-12T01:54:09+00:00,343465563,343465079,1,Caremerger,Corporatism,"Internal link to ""Pluralism""."
2010-02-12T01:50:55+00:00,343465079,343463893,1,Caremerger,Corporatism,"Internal link to ""Free Market""."
2010-02-12T01:43:14+00:00,343463893,343462070,1,Caremerger,Corporatism,"/* Colonial Corporatism: 1628-1776 */ deleted redundant ""founded""."
2010-02-12T01:30:53+00:00,343462070,343457366,1,Caremerger,Corporatism,I put back the censored text.
2010-02-12T01:24:53+00:00,343461129,343461092,1,Caremerger,Talk:Corporatism,/* Absolutely no evidence that the United States was created in opposition to corporatism */ Deleted again? Looking like Censorship.
2010-02-12T01:21:36+00:00,343460579,343460001,1,Caremerger,Talk:Corporatism,"/* Absolutely no evidence that the United States was created in opposition to corporatism */ in response to replacing ""usually"" with ""sometimes."""
2010-02-12T01:18:06+00:00,343460001,343458477,1,Caremerger,Talk:Corporatism,/* Multi tags */ Acknowledge third (or other) party.
2010-02-12T00:39:20+00:00,343454011,343450546,1,Caremerger,Talk:Corporatism,/* Absolutely no evidence that the United States was created in opposition to corporatism */
2010-02-12T00:04:52+00:00,343448377,343448285,1,Caremerger,Corporatism,"Replace referenced text, deleted."
2010-02-11T23:53:14+00:00,343446286,343444463,1,Caremerger,Corporatism,"""Corporatism"" does not ""fuse"", it charters."
2010-02-11T23:42:38+00:00,343444463,343439654,1,Caremerger,Corporatism,"Hmm. Somehow this POV was deleted without valid socratic dialog. I will replace it--repeatedly, if required."
2010-02-11T23:35:49+00:00,343443182,343439433,1,Caremerger,Talk:Corporatism,"/* This Article's First Paragraphs: Improved, Not Good Enough */ Add new topic."
2010-02-11T23:02:57+00:00,343437589,343415828,1,Caremerger,Corporatism,Corrected POV tag.
2010-02-11T21:05:06+00:00,343415828,343408482,1,Caremerger,Corporatism,"Objection to the premise that two delineated forms of corporatism exist, when both are authoritarian in nature."
2010-02-11T21:02:04+00:00,343415266,343391957,1,Caremerger,Talk:Corporatism,Not good enough.
2010-02-11T19:21:21+00:00,343396909,343388958,1,Caremerger,Corporatism,"What mandate? ""Mandate""has not been previously established. Further, ""For the body"" needs disambiguation."
2010-02-11T18:35:06+00:00,343388958,343386909,1,Caremerger,Corporatism,/* United States Corporatism: 1795-1886 */ added italics.
2010-02-11T18:23:35+00:00,343386909,343370584,1,Caremerger,Corporatism,"Objection to the phrase ""scholarly works"", which implies ""all"", and inherent validity."
2010-02-11T16:55:37+00:00,343371438,343355933,1,Caremerger,Talk:Corporatism,Response.
2010-02-11T16:50:13+00:00,343370584,343370296,1,Caremerger,Corporatism,"/* United States Corporatism: 1795-1886 */ minus ""a"""
2010-02-11T16:48:22+00:00,343370296,343369877,1,Caremerger,Corporatism,/* United States Corporatism: 1776-1787 */ fix internal link
2010-02-11T16:45:48+00:00,343369877,343369322,1,Caremerger,Corporatism,/* Colonial Corporatism: 1628-1776 */ fix ref tag.
2010-02-11T16:42:14+00:00,343369322,343369161,1,Caremerger,Corporatism,/* United States Corporatism: 1787-1795 */
2010-02-11T16:41:18+00:00,343369161,343369026,1,Caremerger,Corporatism,/* United States Corporatism: 1787-1795 */
2010-02-11T16:40:25+00:00,343369026,343354961,1,Caremerger,Corporatism,Add American Corporatism.
2010-02-11T14:53:41+00:00,343352476,343351994,1,Caremerger,Corporatism,Further clarification of the intent toward monopoly.
2010-02-11T14:50:26+00:00,343351994,343351913,1,Caremerger,Corporatism,"No proof of ""usually"", ""change in popular use from a body"", or an objective differentiation of the ambiguous term ""business"" (personal business?/private business?/mercantile?)."
2010-02-11T14:11:59+00:00,343346463,343345311,1,Caremerger,Talk:Corporatism,Response. Copy edits.
2010-02-11T14:04:01+00:00,343345311,343276482,1,Caremerger,Talk:Corporatism,More absurdities.
2010-02-11T13:37:29+00:00,343341139,343285496,1,Caremerger,Corporatism,"Whichever authority ""officially"" declared this motivation in all cases is wrong."
2010-02-10T16:17:42+00:00,343170928,343151457,1,Caremerger,Corporatism,Ordinated H2Popular usage
2010-02-10T15:55:18+00:00,343167223,343166215,1,Caremerger,Talk:Corporatism,/* This Article's Information Resources Can Be Improved */ minor edits.
2010-02-10T15:49:06+00:00,343166215,343140736,1,Caremerger,Talk:Corporatism,Suggesting a major rewrite.
2010-02-10T05:06:37+00:00,343094801,343094421,1,Caremerger,Corporatism,
2010-02-10T05:03:05+00:00,343094421,343087171,1,Caremerger,Corporatism,This text is biased.
2010-02-10T04:53:58+00:00,343093323,343091093,1,Caremerger,Talk:Corporatism,"/* ""Corporatism"" Implies State Authoritarianism */ resigned"
2010-02-10T03:21:00+00:00,343079042,343076811,1,Caremerger,Talk:Corporatism,"/* ""Corporatism"" Implies State Authoritarianism */ minor copyedit."
2010-02-10T03:07:24+00:00,343076811,343064310,1,Caremerger,Talk:Corporatism,"/* ""Corporatism"" Implies State Authoritarianism */ Last response to my person."
2010-02-10T01:55:39+00:00,343064310,342961208,1,Caremerger,Talk:Corporatism,"/* The Corporatism Page Has Massive Inconsistencies */ Comment on the need (or lack of it) for a topic matter expert regarding the term ""corporatist""."
2010-02-09T18:18:59+00:00,342975601,342934537,1,Caremerger,Wikipedia talk:WikiProject Fascism/Archive 4,/* Is fascism right-wing? */ No. Fascism is independent of Right/Left.
2010-02-09T16:44:21+00:00,342957393,342935791,1,Caremerger,Wikipedia:WikiProject Politics/Fascism,/* Participants */ Added my participation.
2010-02-09T14:41:33+00:00,342935791,323883087,1,Caremerger,Wikipedia:WikiProject Politics/Fascism,"/* Parameters */ Please explain subjective terms, such as ""stressing"" and ""single leader"". Please see talk page."
2010-02-09T14:33:13+00:00,342934537,339309702,1,Caremerger,Wikipedia talk:WikiProject Fascism/Archive 4,"Objection to the premise of parameters to define ""fascism""."
2010-02-09T13:21:25+00:00,342924900,0,1,Caremerger,Portal talk:Politics/Intro,I have suggested a rewrite of this thesis statement to include a broader meaning.
2010-02-09T12:41:04+00:00,342920134,342854155,1,Caremerger,Corporatism,"I have included this valid reference as a summary phrase before, and it has been deleted. I will restore it."
2010-02-09T11:44:14+00:00,342914008,342844745,1,Caremerger,Talk:Corporatism,"New heading: To clarify the function of the word ""Corporatism""."
2010-02-09T03:54:23+00:00,342854155,342853415,1,Caremerger,Corporatism,correct POV
2010-02-09T03:01:08+00:00,342844745,342835475,1,Caremerger,Talk:Corporatism,"/* I have removed pejorative uses of the term corporatism from the article */ These are merely descriptive terms, not pejorative terms."
2010-02-09T02:15:52+00:00,342835475,342824750,1,Caremerger,Talk:Corporatism,/* The Corporatism Page Has Massive Inconsistencies */ rebuttal.
2010-02-09T01:34:55+00:00,342827680,342760233,1,Caremerger,Corporatism,
2010-02-09T01:17:59+00:00,342824750,342775899,1,Caremerger,Talk:Corporatism,"/* Multiple serious problems exist with this article involving POV, possible factual inaccuracy, contradiction, use of weasel words, and possible original research */"
2010-02-08T20:25:42+00:00,342768821,342756912,1,Caremerger,Talk:Corporatism,"/* Corporatism is not universally fascist nor a fascist-invented economic system */ refute to the denial that ""corporatism"" is not a form of fascism."
2010-02-08T19:46:29+00:00,342760827,342760731,1,Caremerger,User talk:Caremerger,
2010-02-08T19:46:01+00:00,342760731,342754224,1,Caremerger,User talk:Caremerger,Response.
2010-02-08T19:26:24+00:00,342756750,342754830,1,Caremerger,Talk:Corporatism,Amends and Response.
2010-02-08T19:16:33+00:00,342754830,342750396,1,Caremerger,Talk:Corporatism,
2010-02-08T17:00:45+00:00,342730022,342719556,1,Caremerger,Corporatism,"Disambiguation of the term ""functionalism""."
2010-02-08T16:05:42+00:00,342719556,342717147,1,Caremerger,Corporatism,Corporatism is a form of Collectivism.
2010-02-08T16:01:40+00:00,342718841,342698955,1,Caremerger,Talk:Corporatism,/* The Corporatism Page Has Massive Inconsistencies */ standard copyedit.
2010-02-08T14:58:53+00:00,342707762,342707249,1,Caremerger,Corporatism,For clarity.
2010-02-08T14:55:52+00:00,342707249,342705436,1,Caremerger,Corporatism,
2010-02-08T14:44:55+00:00,342705436,342705005,1,Caremerger,Corporatism,""" in the interest of the multiple groups"" is not proven—merely referenced. Self-interest is still present."
2010-02-08T14:42:12+00:00,342705005,342699822,1,Caremerger,Corporatism,Sovereign immunity is the means by which corporatism is maintained.
2010-02-08T14:26:48+00:00,342702458,342652598,1,Caremerger,User talk:Caremerger,
2010-02-08T14:08:53+00:00,342699822,342655720,1,Caremerger,Corporatism,
2010-02-08T14:02:19+00:00,342698955,342698523,1,Caremerger,Talk:Corporatism,/* The Corporatism Page Has Massive Inconsistencies */ subordinate text/ i forgot to sign it--sorry.
2010-02-08T13:58:22+00:00,342698393,342657368,1,Caremerger,Talk:Corporatism,/* The Corporatism Page Has Massive Inconsistencies */
2010-02-07T18:56:52+00:00,342529751,342523762,1,Caremerger,Corporatism,Entered the name of the regime.
2010-02-07T18:47:52+00:00,342528034,341578392,1,Caremerger,Wikipedia:WikiProject Politics,/* Participants */ Can I participate?
2010-02-07T18:37:05+00:00,342525974,342525881,1,Caremerger,Talk:Corporatism,/* The Corporatism Page Has Massive Inconsistencies */
2010-02-07T18:36:37+00:00,342525881,342503284,1,Caremerger,Talk:Corporatism,/* The Corporatism Page Has Massive Inconsistencies */
2010-02-07T18:24:46+00:00,342523762,342521929,1,Caremerger,Corporatism,"Added Links. Further, the purpose for Corporatism is not limited. Corporatism can be forced onto a work environment for many purposes, including self-interest."
2010-02-07T18:13:51+00:00,342521929,342520229,1,Caremerger,Corporatism,
2010-02-07T18:04:30+00:00,342520229,342516174,1,Caremerger,Corporatism,"Not organization ""where"" corporate groups,  ""of"" corporate groups. Deleted redundant ""groups"". ""... are joined together into a single body"" is ""conjoined""."
2010-02-07T17:40:53+00:00,342516174,342503967,1,Caremerger,Corporatism,"/* Fascist corporatism */ Added historic period, linked and superordinated the leader of the movement."
2010-02-07T16:24:21+00:00,342503967,342498713,1,Caremerger,Corporatism,"Corporatists are not required to ""view"" anything. Further, they may view society as an organic body, or as an inorganic means to make capital, or anything else. Therefore, the sentence goes."
2010-02-07T16:19:49+00:00,342503284,336923007,1,Caremerger,Talk:Corporatism,
2010-02-07T15:47:44+00:00,342498713,342492346,1,Caremerger,Corporatism,/* See also */
2010-02-07T15:05:35+00:00,342492346,342490410,1,Caremerger,Corporatism,
2010-02-07T14:51:38+00:00,342490410,342490113,1,Caremerger,Corporatism,
2010-02-07T14:49:10+00:00,342490113,342489602,1,Caremerger,Corporatism,"""Society"" has a vague definition. All humanity? Asian society ""different"" from western society? How corporatists view society is limited by their views."
2010-02-07T14:45:19+00:00,342489602,342489367,1,Caremerger,Corporatism,Redundant.
2010-02-07T14:43:31+00:00,342489367,342488967,1,Caremerger,Corporatism,Not all corporatists.
2010-02-07T14:40:38+00:00,342488967,342486768,1,Caremerger,Corporatism,
2010-02-07T14:22:46+00:00,342486768,342485785,1,Caremerger,Corporatism,"""and to prevent conflict between the groups"" cannot be the sole motivation to direct corporatist policies; self-interest is one possible alternative motivation."
2010-02-07T14:15:10+00:00,342485785,342431209,1,Caremerger,Corporatism,"If ""Corporatism"" is a system of economic, political, or social organization, then it CANNOT establish policies SOLELY in the interest of the multiple groups and ALL of society."
2010-02-07T04:28:26+00:00,342425045,342423856,1,Caremerger,Corporatism,"""At a popular level in recent years"" has neither supporting evidence, nor is the term objective."
2010-02-07T04:19:47+00:00,342423856,342423253,1,Caremerger,Corporatism,"""running"" a state is called ""governing""."
2010-02-07T04:15:46+00:00,342423253,342421838,1,Caremerger,Corporatism,Redundancies.
2010-02-07T04:04:34+00:00,342421838,342421180,1,Caremerger,Corporatism,The antecedent was unclear.
2010-02-07T03:59:58+00:00,342421180,342419651,1,Caremerger,Corporatism,
2010-02-07T03:48:39+00:00,342419651,342419500,1,Caremerger,Corporatism,"""being alike to"" is neither proper, nor needed."
2010-02-07T03:47:28+00:00,342419500,342418790,1,Caremerger,Corporatism,"""Corporatism"" does not view anything. However, corporatists may view the function of corporate groups akin to an organic body."
2010-02-07T03:42:28+00:00,342418790,342417007,1,Caremerger,Corporatism,"Possible to have more than one competing corporation within a consortium--however, an organic body cannot have more than one competing liver."
2010-02-07T03:29:48+00:00,342417007,342415647,1,Caremerger,Corporatism,"""supported from various proponents"" is biased and subjective. If ""corporatism"" is political, then it will comprise proponents and opponents, who support, or shun, the system."
2010-02-07T03:19:49+00:00,342415647,342415015,1,Caremerger,Corporatism,"""It"" has no antecedent--however, ""social, religious, economic, or popular organizations"" was aforementioned."
2010-02-07T03:15:04+00:00,342415015,342414722,1,Caremerger,Corporatism,"Who's ability? Doesn't matter. ""The"" ability."
2010-02-07T03:12:39+00:00,342414722,342413671,1,Caremerger,Corporatism,"""Directly or indirectly""? Any other options? No--The term goes."
2010-02-07T03:03:41+00:00,342413671,342396452,1,Caremerger,Corporatism,Quotes for consistency.
2010-02-07T01:04:05+00:00,342396452,342396223,1,Caremerger,Corporatism,Quotes for consistency.
2010-02-07T01:02:18+00:00,342396223,342392482,1,Caremerger,Corporatism,"Questionable antecedent to ""their"". Political scientists? States? Further attempts to split the run-on sentence."
2010-02-07T00:39:21+00:00,342392482,342392033,1,Caremerger,Corporatism,Effectively--as opposed to ineffectively?
2010-02-07T00:36:52+00:00,342392033,342391689,1,Caremerger,Corporatism,"""State"" (Sovereign) and ""Officially"" is redundant. Poor use of hyphenation."
2010-02-07T00:34:50+00:00,342391689,342382051,1,Caremerger,Corporatism,"Edit 1: Run-on, clumsy sentence."
2010-02-06T18:31:54+00:00,342329365,342327775,1,Caremerger,Corporatism,"Clearly ""the multiple groups"" are neither the only interests that corporatism's economic, political, or social factors influence, nor is it under under any other economic, political, or social system."
2010-02-06T18:22:40+00:00,342327775,342326454,1,Caremerger,Corporatism,Logic flow: First three paragraphs describe the term Corporatism; the fourth describes its function.
2010-02-06T18:14:50+00:00,342326454,342322669,1,Caremerger,Corporatism,"Punctuation. Pronoun instead of antecedent reiteration. Delete redundant ""Single Body""."
2010-02-06T17:51:48+00:00,342322669,342321974,1,Caremerger,Corporatism,Better logic flow.
2010-02-06T17:47:01+00:00,342321974,342320804,1,Caremerger,Corporatism,Better flow of logic.
2010-02-06T17:39:46+00:00,342320804,342319545,1,Caremerger,Corporatism,"""Private"" business corporations is false--Corporations include those that have gone Public. Further, Government licenses these corporations--regardless of the interests of the public."
2010-02-06T17:32:07+00:00,342319545,342290089,1,Caremerger,Corporatism,"The adjective ""pejorative"" places a value on an otherwise objective description of a term. No ""good""; no ""bad""; no ""pejorative"";--only the facts."
2010-02-06T13:58:36+00:00,342290089,342288383,1,Caremerger,Corporatism,
2010-02-06T13:42:51+00:00,342288383,342288088,1,Caremerger,Corporatism,
2010-02-06T13:40:00+00:00,342288088,342285758,1,Caremerger,Corporatism,
2010-02-06T13:15:32+00:00,342285758,342284743,1,Caremerger,Corporatism,"Incongruous logic flow: If ""Corpus"" is the root, then ""corporatism"" and ""corporation"" share the root."
2010-02-06T13:05:18+00:00,342284743,342176724,1,Caremerger,Corporatism,"inaccurate and pejorative are not unbiased adjectives--they are, in fact,  inaccurate and pejorative."
2010-02-05T16:13:27+00:00,342116548,341918231,1,Caremerger,Corporatism,"Unsubstantiated opinion. 1. Corporation and Corporatism share word roots; so, ""Contemporary"" is invalid. ""inaccurate and pejorative"" has no factual basis."
2009-09-21T00:07:54+00:00,315199284,315096909,1,Goalyoman,Individualist anarchism,not supported by the citations
2009-08-05T18:22:26+00:00,306251519,306251058,1,Goalyoman,Individualist anarchism,"/* The ""Boston Anarchists"" */"
2009-08-05T18:20:13+00:00,306251058,306250011,1,Goalyoman,Individualist anarchism,"/* The ""Boston Anarchists"" */ moved sentence"
2009-08-05T18:14:41+00:00,306250011,306248387,1,Goalyoman,Individualist anarchism,"/* The ""Boston Anarchists"" */"
2009-08-05T18:05:57+00:00,306248387,306246380,1,Goalyoman,Individualist anarchism,"/* The ""Boston Anarchists"" */ Looks like someone just stuck quotes in with no context and editorialized something other than what they are saying"
2009-08-05T17:54:47+00:00,306246380,306220869,1,Goalyoman,Individualist anarchism,"/* The ""Boston Anarchists"" */ This is not L. Susan Brown but Susan Love Brown.   And she did not use the words ""fervent anticapitalists."" I'm providing more of the quote too..."
2009-08-05T15:21:43+00:00,306220869,305081383,1,Goalyoman,Individualist anarchism,"/* The ""Boston Anarchists"" */ this is an incorrect interpretation. He's not talking about private defense. He's talking about states. This was probably before he became anarchist too..."
2009-08-04T22:44:42+00:00,306099398,306099370,1,Goalyoman,Anarchism without adjectives,/* Origins */
2009-08-04T22:44:27+00:00,306099370,296751642,1,Goalyoman,Anarchism without adjectives,/* Origins */
2009-07-30T06:49:17+00:00,305027850,305027768,1,Goalyoman,Talk:Anarchism,/* The American Tradition */
2009-07-30T06:48:28+00:00,305027768,305027672,1,Goalyoman,Talk:Anarchism,/* The American Tradition */
2009-07-30T06:47:23+00:00,305027672,304944297,1,Goalyoman,Talk:Anarchism,/* The American Tradition */
2009-07-27T19:48:15+00:00,304535763,304392235,1,Goalyoman,Talk:Egoist anarchism,/* Situationist International */
2009-07-27T19:43:02+00:00,304534849,304375753,1,Goalyoman,Egoist anarchism,
2009-07-27T01:31:14+00:00,304392235,304385553,1,Goalyoman,Talk:Egoist anarchism,/* Situationist International */
2009-07-27T00:42:40+00:00,304385345,304378293,1,Goalyoman,Talk:Egoist anarchism,/* Situationist International */
2009-07-26T23:41:18+00:00,304377107,304376678,1,Goalyoman,Talk:Egoist anarchism,/* Situationist International */
2009-07-26T23:37:50+00:00,304376678,304376112,1,Goalyoman,Talk:Egoist anarchism,/* Situationist International */
2009-07-26T23:30:26+00:00,304375682,304374823,1,Goalyoman,Talk:Egoist anarchism,/* Situationist International */
2009-07-26T23:25:45+00:00,304375089,304373268,1,Goalyoman,Egoist anarchism,"/* Later development */ ""later development"" not a good title for the section. To veer from Stirner, isn't necessarily ""development."""
2009-07-26T23:22:00+00:00,304374589,304374562,1,Goalyoman,Talk:Egoist anarchism,/* Situationist International */
2009-07-26T23:21:47+00:00,304374562,304373294,1,Goalyoman,Talk:Egoist anarchism,/* Situationist International */
2009-07-26T23:11:43+00:00,304373268,304371853,1,Goalyoman,Egoist anarchism,"/* Situationist International */ This is not egoism. Again, being merely influenced by Max Stirner does not make you an egoist."
2009-07-26T23:08:02+00:00,304372740,304372046,1,Goalyoman,Talk:Egoist anarchism,/* Situationist International */
2009-07-26T23:01:34+00:00,304371853,304361912,1,Goalyoman,Egoist anarchism,Being influenced by egoism and being an egoist are two different things. Emma Goldman was not an egoist. This article has major problems.
2009-07-26T17:26:15+00:00,304322945,304225421,1,Goalyoman,Talk:Anarchism,/* The American Tradition */
2009-07-25T15:25:31+00:00,304132459,304071263,1,Goalyoman,Talk:Anarchism,/* The American Tradition */
2009-07-25T03:02:15+00:00,304057668,304056652,1,Goalyoman,Talk:Anarchism,/* The American Tradition */
2009-07-24T22:07:22+00:00,304018344,304018248,1,Goalyoman,Talk:Anarchism,/* The American Tradition */
2009-07-24T22:06:38+00:00,304018248,304017029,1,Goalyoman,Talk:Anarchism,/* The American Tradition */
2009-07-24T21:31:57+00:00,304012836,303991594,1,Goalyoman,Anarchism,/* The American tradition */ problem solved?
2009-07-24T21:26:18+00:00,304011885,304005607,1,Goalyoman,Talk:Anarchism,/* The American Tradition */
2009-07-24T20:40:52+00:00,304004771,304002846,1,Goalyoman,Talk:Anarchism,/* The American Tradition */
2009-07-24T20:19:51+00:00,304000951,304000762,1,Goalyoman,Talk:Anarchism,/* The American Tradition */
2009-07-24T20:18:48+00:00,304000762,304000146,1,Goalyoman,Talk:Anarchism,/* The American Tradition */
2009-07-24T19:32:48+00:00,303992570,303884897,1,Goalyoman,Talk:Anarchism,/* The American Tradition */
2009-07-24T19:26:54+00:00,303991594,303987850,1,Goalyoman,Anarchism,/* The American tradition */ source says rothbard revived it
2010-02-10T01:15:08+00:00,343056967,343053847,1,Immoral_moralist,User talk:Immoral moralist,/* Welcome to Wikipedia! */
2010-02-10T00:31:43+00:00,343048644,343048594,1,Immoral_moralist,User talk:Immoral moralist,/* Welcome to Wikipedia! */
2010-02-10T00:31:27+00:00,343048594,343047692,1,Immoral_moralist,User talk:Immoral moralist,/* Welcome to Wikipedia! */
2010-02-10T00:24:55+00:00,343047305,343046535,1,Immoral_moralist,User talk:Immoral moralist,/* Welcome to Wikipedia! */
2010-02-10T00:21:03+00:00,343046535,343046494,1,Immoral_moralist,User talk:Immoral moralist,/* Welcome to Wikipedia! */
2010-02-10T00:20:49+00:00,343046494,343046099,1,Immoral_moralist,User talk:Immoral moralist,/* Welcome to Wikipedia! */
2010-02-10T00:19:09+00:00,343046099,343045986,1,Immoral_moralist,User talk:Immoral moralist,/* Welcome to Wikipedia! */
2010-02-10T00:18:43+00:00,343045986,343045583,1,Immoral_moralist,User talk:Immoral moralist,/* Welcome to Wikipedia! */
2010-02-10T00:17:01+00:00,343045583,342871198,1,Immoral_moralist,User talk:Immoral moralist,/* Welcome to Wikipedia! */
2010-02-09T22:08:51+00:00,343021874,343020262,1,Immoral_moralist,Talk:Fascism,/* POV Tag */
2010-02-09T20:59:35+00:00,343008206,343006622,1,Immoral_moralist,Wikipedia:Sockpuppet investigations/RJII,/*  Comments by accused parties  */
2010-02-09T20:51:57+00:00,343006622,343005237,1,Immoral_moralist,Wikipedia:Sockpuppet investigations/RJII,/*  Comments by accused parties  */
2010-02-09T20:45:15+00:00,343005237,343005080,1,Immoral_moralist,Wikipedia:Sockpuppet investigations/RJII,"/*  Clerk, patrolling admin and checkuser comments  */"
2010-02-09T20:44:30+00:00,343005080,343004486,1,Immoral_moralist,Wikipedia:Sockpuppet investigations/RJII,"/*  Clerk, patrolling admin and checkuser comments  */"
2010-02-09T20:41:49+00:00,343004486,343004090,1,Immoral_moralist,Wikipedia:Sockpuppet investigations/RJII,"/*  Clerk, patrolling admin and checkuser comments  */"
2010-02-09T20:40:02+00:00,343004090,342999406,1,Immoral_moralist,Wikipedia:Sockpuppet investigations/RJII,"/*  Clerk, patrolling admin and checkuser comments  */"
2010-02-09T19:27:42+00:00,342989549,342978090,1,Immoral_moralist,Talk:Fascism,/* POV Tag */
2010-02-09T05:41:01+00:00,342874360,342781920,1,Immoral_moralist,Wikipedia:Sockpuppet investigations/RJII,/*  Comments by accused parties  */
2010-02-09T05:23:47+00:00,342871198,342782931,1,Immoral_moralist,User talk:Immoral moralist,/* Sockpuppetry case */
2010-02-08T19:52:24+00:00,342762116,342756636,1,Immoral_moralist,Talk:Fascism,/* POV Tag */
2010-02-08T19:21:55+00:00,342755837,342743531,1,Immoral_moralist,Talk:Fascism,/* POV Tag */
2010-02-08T07:40:22+00:00,342657762,342657030,1,Immoral_moralist,Talk:Fascism,/* POV Tag */
2010-02-08T07:32:04+00:00,342657030,342650374,1,Immoral_moralist,Talk:Fascism,/* POV Tag */
2010-02-08T05:29:33+00:00,342643012,342630609,1,Immoral_moralist,Fascism,WP:NPOV says if you mention one view then all significant other views need to be mentioned.  Replace tag
2010-02-07T20:00:58+00:00,342542619,342485136,1,Immoral_moralist,Fascism,putting POV template for lead.  lead still POV. see talk.
2010-02-04T19:08:30+00:00,341940535,341939660,1,Immoral_moralist,Talk:Fascism,/* To Immoral Moralist */
2010-02-04T19:03:33+00:00,341939660,341925842,1,Immoral_moralist,Talk:Fascism,"/* Proposed resolution re ""political spectrum"" */"
2010-02-04T05:58:30+00:00,341839184,341836198,1,Immoral_moralist,Talk:Fascism,"/* Proposed resolution re ""political spectrum"" */"
2010-02-04T05:01:33+00:00,341833151,341832988,1,Immoral_moralist,Talk:Fascism,"/* Proposed resolution re ""political spectrum"" */"
2010-02-04T05:00:17+00:00,341832988,341832371,1,Immoral_moralist,Talk:Fascism,"/* Proposed resolution re ""political spectrum"" */"
2010-02-04T04:55:28+00:00,341832371,341832326,1,Immoral_moralist,Talk:Fascism,/* I think we are pushing very close to needing arbitration here */
2010-02-04T04:54:17+00:00,341832205,341832065,1,Immoral_moralist,Fascism,"What's a person means by ""right"" and ""left"" is not constant through time. We need to source modern people to interpret his words instead."
2010-02-04T04:50:15+00:00,341831661,341827289,1,Immoral_moralist,Talk:Fascism,/* I think we are pushing very close to needing arbitration here */
2010-02-03T06:38:18+00:00,341637367,341636745,1,Immoral_moralist,Talk:Fascism,/* What exactly are we arguing about NOW? */
2010-02-03T05:42:58+00:00,341631129,341630919,1,Immoral_moralist,Talk:Fascism,/* What exactly are we arguing about NOW? */
2010-02-03T05:40:25+00:00,341630864,341628627,1,Immoral_moralist,Fascism,"significant # of historians, to make clear this is not a fringe view. The source says a ""good number"" of historians"
2010-02-03T05:38:32+00:00,341630676,341630428,1,Immoral_moralist,Talk:Fascism,/* What exactly are we arguing about NOW? */
2010-02-03T05:36:14+00:00,341630428,341629399,1,Immoral_moralist,Talk:Fascism,/* What exactly are we arguing about NOW? */
2010-02-02T04:56:17+00:00,341417859,341400491,1,Immoral_moralist,Fascism,"NPOV requires that all significant views be revealed. Numerous sources say Fascism is in the center, neither left nor right"
2010-02-01T21:50:27+00:00,341352119,341313855,1,Immoral_moralist,Fascism,Since you bring up collectivism it has to be should be noted that collectivism is on the left ....I dont think any scholars consider it to be on the right.
2010-02-01T21:15:44+00:00,341345466,341345013,1,Immoral_moralist,Talk:Fascism,"/* Left-wing promotes egalitarian society, right-wing promotes or accepts hierarchical society. */"
2010-02-01T21:12:48+00:00,341345013,341343110,1,Immoral_moralist,Talk:Fascism,"/* Left-wing promotes egalitarian society, right-wing promotes or accepts hierarchical society. */"
2010-01-31T01:58:25+00:00,341010753,341008258,1,Immoral_moralist,Talk:Fascism,/* Fascism is on the Left */
2010-01-29T22:57:22+00:00,340802568,340802063,1,Immoral_moralist,Talk:Fascism,"/* No, fascism IS right-wing */"
2010-01-29T22:54:16+00:00,340802063,340741282,1,Immoral_moralist,Talk:Fascism,/* Fascism is on the Left */
2010-01-29T04:46:24+00:00,340663264,340662117,1,Immoral_moralist,Talk:Fascism,/* Fascism is on the Left */
2010-01-29T04:36:28+00:00,340662117,340662062,1,Immoral_moralist,Talk:Fascism,/* Fascism is on the Left */
2010-01-29T04:35:57+00:00,340662062,340659867,1,Immoral_moralist,Talk:Fascism,/* Fascism is on the Left */
2010-01-29T04:16:33+00:00,340659867,340649121,1,Immoral_moralist,Talk:Fascism,/* Fascism is on the Left */
2010-01-29T02:52:43+00:00,340648784,340647119,1,Immoral_moralist,Talk:Fascism,/* Fascism is on the Left */
2010-01-29T02:19:44+00:00,340644188,340639208,1,Immoral_moralist,Talk:Fascism,/* Fascism is on the Left */
2010-01-29T01:34:17+00:00,340637276,340633288,1,Immoral_moralist,Talk:Fascism,/* Fascism is on the Left */
2010-01-29T00:18:30+00:00,340625644,340615242,1,Immoral_moralist,Talk:Fascism,/* Fascism is on the Left */
2010-01-28T23:09:27+00:00,340614344,340613616,1,Immoral_moralist,Talk:Fascism,/* Fascism is on the Left */
2010-01-28T22:58:48+00:00,340612515,340610996,1,Immoral_moralist,Talk:Fascism,/* Fascism is on the Left */
2010-01-28T22:49:34+00:00,340610996,340610265,1,Immoral_moralist,Talk:Fascism,/* Fascism is on the Left */
2010-01-28T22:40:03+00:00,340609423,340609221,1,Immoral_moralist,Talk:Fascism,/* Fascism is on the Left */
2010-01-28T22:38:53+00:00,340609221,340607775,1,Immoral_moralist,Talk:Fascism,/* Fascism is on the Left */
2010-01-28T19:47:55+00:00,340580071,340579899,1,Immoral_moralist,Talk:Fascism,/* Fascism is on the Left */
2010-01-28T19:46:54+00:00,340579899,340556224,1,Immoral_moralist,Talk:Fascism,/* Fascism is on the Left */
2010-01-28T02:17:25+00:00,340452778,340452652,1,Immoral_moralist,Talk:Fascism,/* Fascism is on the Left */
2010-01-28T02:16:28+00:00,340452652,340449402,1,Immoral_moralist,Talk:Fascism,/* Fascism is on the Left */
2010-01-28T01:33:44+00:00,340447048,340444159,1,Immoral_moralist,Talk:Fascism,/* Fascism is on the Left */
2010-01-28T01:13:36+00:00,340444159,340443566,1,Immoral_moralist,Talk:Fascism,/* Fascism is on the Left */
2010-01-27T23:57:53+00:00,340432650,340432401,1,Immoral_moralist,Fascism,
2010-01-27T23:56:23+00:00,340432401,340432230,1,Immoral_moralist,Fascism,
2010-01-27T23:55:10+00:00,340432230,340420735,1,Immoral_moralist,Fascism,NPOV template because a significant view is being left out that a good number of historians say it is a mix of left and right.
2010-01-27T23:53:45+00:00,340432014,340422726,1,Immoral_moralist,Talk:Fascism,/* Fascism is on the Left */
2010-01-27T20:23:16+00:00,340394670,340326172,1,Immoral_moralist,Talk:Fascism,/* Fascism is on the Left */
2010-01-27T20:17:03+00:00,340393540,340389726,1,Immoral_moralist,Fascism,...and an example of such a source
2010-01-27T19:55:55+00:00,340389726,340309696,1,Immoral_moralist,Fascism,"significant view needs to be mentioned  ...the source says ""a good number"""
2007-02-05T18:07:54+00:00,105842227,105841955,1,Improper_Bostonian,User talk:Improper Bostonian,/* AGAIN? */
2007-02-05T18:06:32+00:00,105841955,105840648,1,Improper_Bostonian,User talk:Improper Bostonian,/* AGAIN? */
2007-02-05T18:00:29+00:00,105840648,101596762,1,Improper_Bostonian,User talk:Improper Bostonian,
2007-01-31T17:07:42+00:00,104614544,104614342,1,Improper_Bostonian,United States,/* Innovation */
2007-01-31T17:06:55+00:00,104614342,104613230,1,Improper_Bostonian,United States,/* Innovation */
2007-01-31T17:05:37+00:00,104614038,104613996,1,Improper_Bostonian,Talk:United States,
2007-01-31T17:02:21+00:00,104613230,104572064,1,Improper_Bostonian,United States,/* Innovation */ missing info about private sector innovations. most research and development is entirely private in the U.S.
2007-01-19T19:57:11+00:00,101848790,101376761,1,Improper_Bostonian,User talk:Dullfig,/* Somalia */
2007-01-18T18:10:12+00:00,101601071,101600893,1,Improper_Bostonian,United States,/* Education */ Accidently put in wrong place
2007-01-18T18:09:14+00:00,101600893,101563753,1,Improper_Bostonian,United States,/* Education */ I think it's important to note in the caption of this picture that there are private univerisities too.
2007-01-18T18:05:51+00:00,101600188,0,1,Improper_Bostonian,User:Improper Bostonian,[[WP:AES|←]]Created page with ':DO NOT WRITE IN THIS SPACE.'
2007-01-18T17:58:22+00:00,101598651,101598087,1,Improper_Bostonian,Capitalism,better grammar
2007-01-18T17:55:28+00:00,101598087,101335169,1,Improper_Bostonian,Capitalism,"Completing footnote explanation of ""private' ownership"
2007-01-18T17:48:27+00:00,101596762,101596428,1,Improper_Bostonian,User talk:Improper Bostonian,
2007-01-18T17:41:01+00:00,101595477,101595001,1,Improper_Bostonian,User talk:Improper Bostonian,
2007-01-18T17:38:23+00:00,101595001,101593911,1,Improper_Bostonian,User talk:Improper Bostonian,
2007-01-18T17:32:45+00:00,101593911,101593754,1,Improper_Bostonian,User talk:Improper Bostonian,
2007-01-18T17:31:59+00:00,101593754,101588507,1,Improper_Bostonian,User talk:Improper Bostonian,/* User notice: temporary 3RR block */
2007-01-18T17:05:50+00:00,101588507,101297652,1,Improper_Bostonian,User talk:Improper Bostonian,
2007-01-17T05:47:33+00:00,101272536,101272258,1,Improper_Bostonian,Capitalism,who cares?  that's no reason to revert this cited addition to the article.......stop your disruptions
2007-01-17T05:34:17+00:00,101270793,101270589,1,Improper_Bostonian,Capitalism,
2007-01-17T05:32:37+00:00,101270589,101269529,1,Improper_Bostonian,Capitalism,"reason is illegitmate. the source is not a dictionary but Understanding Principles of Politics and the State by John Schrems, PageFree Publishing (2004), page 234."
2007-01-17T04:42:48+00:00,101263838,99956548,1,Improper_Bostonian,Controlled market,do not redirect. controlled market is distinct idea from planned economy.
2007-01-17T04:39:55+00:00,101263452,101263144,1,Improper_Bostonian,Capitalism,"dictionary is not the source.... Understanding Principles of Politics and the State by John Schrems, PageFree Publishing (2004), page 234.....dictionary is just an example.  reverting."
2007-01-17T03:31:10+00:00,101252689,101252378,1,Improper_Bostonian,Property,references
2007-01-17T03:29:21+00:00,101252378,100646887,1,Improper_Bostonian,Property,/* Use of the term */ clarification on meaning of private property/corporate property
2007-01-17T01:10:28+00:00,101226504,101226199,1,Improper_Bostonian,Capitalism,
2007-01-17T01:08:56+00:00,101226199,101220792,1,Improper_Bostonian,Capitalism,expanding footnote to explain
2007-01-17T00:41:53+00:00,101220792,101218858,1,Improper_Bostonian,Capitalism,
2007-01-17T00:32:31+00:00,101218858,101217715,1,Improper_Bostonian,Capitalism,source for private as distinct from corporate ownership
2007-01-17T00:27:28+00:00,101217715,101202216,1,Improper_Bostonian,Capitalism,restored proper intro sentence....corporate and private ownership are two different things. capitalism doesnt have to be individualized ownership. see merriam-webster definition.
2007-01-16T05:06:34+00:00,101039711,101039619,1,Improper_Bostonian,Corporation,
2007-01-16T05:05:53+00:00,101039619,100998607,1,Improper_Bostonian,Corporation,owned collectively
2007-01-16T05:03:19+00:00,101039306,100295731,1,Improper_Bostonian,Corporate capitalism,collective ownership
2007-01-16T04:53:52+00:00,101038172,101037657,1,Improper_Bostonian,Capitalism,linking..
2007-01-16T04:52:41+00:00,101038027,100987681,1,Improper_Bostonian,Public ownership,doesnt have to be state owned
2007-01-16T04:49:59+00:00,101037657,101037096,1,Improper_Bostonian,Capitalism,instead of publicly owned
2007-01-16T04:45:53+00:00,101037096,101036852,1,Improper_Bostonian,Capitalism,
2007-01-16T04:44:15+00:00,101036852,101031909,1,Improper_Bostonian,Capitalism,"""privately owned"" doesnt always mean non-stateowned.......it often means individually owned instead of community owned. community property doesnt have to be state owned."
2007-01-12T02:17:17+00:00,100136822,100136386,1,Improper_Bostonian,United States,/* General situation */ pointing out that NYSE is private company.....unlike some other countries where the exchange is owned by the state
2007-01-12T02:15:06+00:00,100136386,100135276,1,Improper_Bostonian,United States,/* Education */ pointing out that cominbation of public and private
2007-01-12T02:11:35+00:00,100135798,100120370,1,Improper_Bostonian,New York Stock Exchange,privately owned......unlike some other countries where the state owns the exchange
2007-01-12T02:08:47+00:00,100135276,100134983,1,Improper_Bostonian,United States,/* Education */
2007-01-12T02:07:25+00:00,100134983,100133842,1,Improper_Bostonian,United States,"/* Education */ ok, how about a private university........this article is too government oriented"
2007-01-12T02:01:49+00:00,100133842,100133014,1,Improper_Bostonian,United States,/* Innovation */ missing information about private sector accomplishents
2007-01-11T02:15:23+00:00,99902776,99829097,1,Improper_Bostonian,Talk:United States,
2007-01-09T04:01:18+00:00,99486972,99013817,1,Improper_Bostonian,Talk:Planned economy,/* One sided view? */
2007-01-09T03:48:13+00:00,99484751,99174916,1,Improper_Bostonian,Wikipedia talk:WikiProject Countering systemic bias,/* Editing by the unemployed */
2007-01-09T03:43:09+00:00,99483817,99483260,1,Improper_Bostonian,United States,"/* Innovation */ who is the ""u.s."" here?  the government?  infrastructure of the internet is controlled by private business, not the government"
2007-01-09T03:40:27+00:00,99483260,99456287,1,Improper_Bostonian,United States,/* Innovation */ all funding comes from the private sector ultimately even if it's government funding  ...distinguishing this from taxation
2006-12-19T07:36:02+00:00,95268211,95236868,1,Improper_Bostonian,Wikipedia:WikiProject Countering systemic bias,/* The origins of bias */ removed claim of what the bias may actually be
2006-12-19T07:33:04+00:00,95267957,95267788,1,Improper_Bostonian,Economic liberalism,
2006-12-19T07:31:12+00:00,95267788,95267726,1,Improper_Bostonian,Economic liberalism,
2006-12-19T07:30:41+00:00,95267726,95267650,1,Improper_Bostonian,Economic liberalism,
2006-12-19T07:29:51+00:00,95267650,94941031,1,Improper_Bostonian,Economic liberalism,the case for eco liberalism is spontaneous order
2006-12-19T07:22:53+00:00,95266965,95146032,1,Improper_Bostonian,Wikipedia talk:WikiProject Countering systemic bias,/* Editing by the unemployed */
2006-12-16T17:16:12+00:00,94726184,94694372,1,Improper_Bostonian,Talk:Socialism,/* Socialism doesn't work */
2006-12-16T17:11:19+00:00,94725442,94697289,1,Improper_Bostonian,Wikipedia talk:WikiProject Countering systemic bias,/* Editing by the unemployed */
2006-12-16T05:17:49+00:00,94653480,94231307,1,Improper_Bostonian,Natural rights and legal rights,/* Criticism */ response to social contract
2006-12-16T04:29:24+00:00,94647600,94613896,1,Improper_Bostonian,Talk:United States,/* United States/Utopia article??? */
2006-12-16T01:48:36+00:00,94625608,94625479,1,Improper_Bostonian,Talk:Socialism,/* Socialism doesn't work */
2006-12-16T01:47:42+00:00,94625479,94617521,1,Improper_Bostonian,Talk:Socialism,/* Socialism doesn't work */
2006-12-16T01:44:12+00:00,94625018,94624730,1,Improper_Bostonian,Wikipedia:WikiProject Countering systemic bias,revert. do not call my edits vandalism. discuss on the talk page.
2006-12-15T20:58:43+00:00,94576063,92489009,1,Improper_Bostonian,User talk:Dullfig,
2006-12-15T20:47:19+00:00,94574067,94542435,1,Improper_Bostonian,Talk:Socialism,/* Socialism doesn't work */
2006-12-15T19:41:57+00:00,94562897,94546132,1,Improper_Bostonian,Wikipedia talk:WikiProject Countering systemic bias,/* Editing by the unemployed */
2006-12-15T18:06:15+00:00,94546132,94545940,1,Improper_Bostonian,Wikipedia talk:WikiProject Countering systemic bias,/* Editing by the unemployed */
2006-12-15T18:05:02+00:00,94545940,94539129,1,Improper_Bostonian,Wikipedia talk:WikiProject Countering systemic bias,
2006-12-15T17:59:26+00:00,94544901,93530248,1,Improper_Bostonian,Wikipedia:WikiProject Countering systemic bias,revert to ImproperBostonian. No this is not humour. Those with the most time to edit are unemployed.
2006-12-15T17:45:44+00:00,94542435,94360512,1,Improper_Bostonian,Talk:Socialism,/* Socialism doesn't work */
2006-12-11T02:47:19+00:00,93503321,93500451,1,Improper_Bostonian,Capitalism,"back to first few sentences before Wgee's reversion. (Wgee, it says in the first sentence that means of production can be ""corporately owned"" ..no need to state it again.)"
2006-12-10T17:32:56+00:00,93393546,93361173,1,Improper_Bostonian,Talk:Capitalism,/* Free and unfree labor */
2006-12-10T17:23:14+00:00,93391764,93316500,1,Improper_Bostonian,Socialism,"revert to dullfig. distribution of wealth through markets isn't social control. and ""limited private property"" is redundant. obviously there is private property in final goods."
2006-12-10T04:13:04+00:00,93294964,93294184,1,Improper_Bostonian,Wikipedia:WikiProject Countering systemic bias,/* The origins of bias */ more likely to be unemployed
2006-12-10T04:09:00+00:00,93294184,91949327,1,Improper_Bostonian,Wikipedia:WikiProject Countering systemic bias,"/* The origins of bias */ political views of the unemployed, because they have more time to edit"
2006-12-09T19:45:35+00:00,93201806,92992941,1,Improper_Bostonian,Capitalism,investment determined by private decision. source is in discussion.. merriam-webster international unabridged
2006-12-09T19:31:48+00:00,93199258,93160481,1,Improper_Bostonian,Talk:Capitalism,/* Free and unfree labor */
2006-12-09T05:19:44+00:00,93093918,93091867,1,Improper_Bostonian,Talk:Capitalism,/* Free and unfree labor */
2006-12-09T05:04:54+00:00,93091867,93080638,1,Improper_Bostonian,Talk:Capitalism,/* Free and unfree labor */
2006-12-08T21:45:32+00:00,93015116,93011388,1,Improper_Bostonian,Socialism,social control over what though? over the means of production
2006-12-08T20:15:22+00:00,92995618,92990279,1,Improper_Bostonian,Talk:Capitalism,"/* What does ""capitalism"" refer to? */"
2006-12-08T19:39:32+00:00,92987886,92986142,1,Improper_Bostonian,Talk:Capitalism,/* Free and unfree labor */
2006-12-08T19:32:53+00:00,92986274,92965107,1,Improper_Bostonian,Socialism,improved definition of market socialism
2006-12-08T19:27:09+00:00,92984843,92933592,1,Improper_Bostonian,Talk:Capitalism,/* Free and unfree labor */
2006-12-08T05:26:37+00:00,92869172,92853699,1,Improper_Bostonian,United States,/* General situation */ most businesses are sole proprietorships
2006-12-08T05:01:54+00:00,92865608,92849682,1,Improper_Bostonian,Corporate capitalism,
2006-12-08T04:51:57+00:00,92864205,79074960,1,Improper_Bostonian,Labor theory of property,
2006-12-08T04:48:06+00:00,92863648,92850820,1,Improper_Bostonian,Property,/* Theories of property */ this has nothing to do with labor theory of value
2006-12-08T03:23:34+00:00,92850820,92785373,1,Improper_Bostonian,Property,includes right to transfer
2006-12-08T03:16:14+00:00,92849682,92848466,1,Improper_Bostonian,Corporate capitalism,
2006-12-08T03:09:14+00:00,92848466,92848266,1,Improper_Bostonian,Corporate capitalism,
2006-12-08T03:08:08+00:00,92848266,92846916,1,Improper_Bostonian,Corporate capitalism,
2006-12-08T03:02:39+00:00,92847295,92842714,1,Improper_Bostonian,Capitalism,link
2006-12-08T03:00:27+00:00,92846916,92846731,1,Improper_Bostonian,Corporate capitalism,
2006-12-08T02:59:28+00:00,92846731,92846143,1,Improper_Bostonian,Corporate capitalism,most U.S. businesses are not corporations but sole proprietorships
2006-12-08T02:56:20+00:00,92846143,92845876,1,Improper_Bostonian,Corporate capitalism,
2006-12-08T02:54:46+00:00,92845876,92845727,1,Improper_Bostonian,Corporate capitalism,
2006-12-08T02:53:50+00:00,92845727,83562246,1,Improper_Bostonian,Corporate capitalism,npov definition
2006-12-08T02:37:25+00:00,92842714,92841648,1,Improper_Bostonian,Capitalism,links
2006-12-07T18:40:39+00:00,92746052,92744571,1,Improper_Bostonian,Capitalism,added in profit
2006-12-07T18:33:44+00:00,92744571,92743344,1,Improper_Bostonian,Capitalism,improving wording
2006-12-07T18:27:36+00:00,92743344,92741801,1,Improper_Bostonian,Capitalism,
2006-12-07T18:20:26+00:00,92741925,92741542,1,Improper_Bostonian,Talk:Capitalism,"/* What does ""capitalism"" refer to? */"
2006-12-07T18:08:14+00:00,92739590,92739415,1,Improper_Bostonian,Talk:Capitalism,"/* What does ""capitalism"" refer to? */"
2006-12-07T18:03:02+00:00,92738626,92738406,1,Improper_Bostonian,Talk:Capitalism,"/* What does ""capitalism"" refer to? */"
2006-12-07T18:01:50+00:00,92738406,92738022,1,Improper_Bostonian,Talk:Capitalism,"/* What does ""capitalism"" refer to? */"
2006-12-07T18:00:08+00:00,92738179,92737569,1,Improper_Bostonian,Capitalism,"investment has to be from the private sector. if it's all from government, it's not capitalism.  also, invest in trade? what does that mean? this is very bad writing."
2006-12-07T17:57:08+00:00,92737579,92737283,1,Improper_Bostonian,Talk:Capitalism,/* Owner proprietors */
2006-12-07T17:54:45+00:00,92737131,92736596,1,Improper_Bostonian,Capitalism,"theories are not called ""capitalism"" but ""liberalism"". Liberalism is the theory behind capitalism."
2006-12-07T17:50:47+00:00,92736413,92735510,1,Improper_Bostonian,Talk:Capitalism,/* Owner proprietors */
2006-12-07T17:43:49+00:00,92735032,92734212,1,Improper_Bostonian,Capitalism,revert to sneakytod. this intro is terrible and needs a lot of work.
2006-12-07T17:35:53+00:00,92733559,92720583,1,Improper_Bostonian,Capitalism,"this doesnt make sense. the theories are called ""liberaralism,"" not ""capitalism"". Capitalism is the system, liberalism is the theory."
2006-12-07T03:00:25+00:00,92613466,92613107,1,Improper_Bostonian,Talk:Capitalism,/* Owner proprietors */
2006-12-07T02:58:35+00:00,92613107,92612860,1,Improper_Bostonian,Talk:Capitalism,/* Owner proprietors */
2006-12-07T02:57:26+00:00,92612860,92612557,1,Improper_Bostonian,Talk:Capitalism,/* Owner proprietors */
2006-12-07T02:56:04+00:00,92612557,92612261,1,Improper_Bostonian,Talk:Capitalism,/* Owner proprietors */
2006-12-07T02:54:40+00:00,92612261,92612205,1,Improper_Bostonian,Talk:Capitalism,/* Owner proprietors */
2006-12-07T02:54:21+00:00,92612205,92610945,1,Improper_Bostonian,Talk:Capitalism,/* Owner proprietors */
2006-12-07T02:47:50+00:00,92610915,92609292,1,Improper_Bostonian,Talk:Capitalism,/* Owner proprietors */
2006-12-06T18:24:31+00:00,92505558,92505495,1,Improper_Bostonian,Socialism,
2006-12-06T18:24:11+00:00,92505495,92476858,1,Improper_Bostonian,Socialism,improved definition of market socialism.
2006-12-06T18:22:23+00:00,92505159,92504522,1,Improper_Bostonian,Talk:Capitalism,/* Owner proprietors */
2006-12-06T18:19:04+00:00,92504522,92299053,1,Improper_Bostonian,Talk:Capitalism,/* Owner proprietors */
2006-12-06T18:03:28+00:00,92501430,92482555,1,Improper_Bostonian,Capitalism,improved definition
2006-12-04T05:34:06+00:00,91941382,91940575,1,Improper_Bostonian,Capitalism,
2006-12-04T05:27:40+00:00,91940575,91940260,1,Improper_Bostonian,Capitalism,"reverting to Ungovernable Force, because that is not an improvement"
2006-12-04T05:25:34+00:00,91940286,91940213,1,Improper_Bostonian,Socialism,
2006-12-04T05:25:06+00:00,91940213,91940154,1,Improper_Bostonian,Socialism,
2006-12-04T05:24:38+00:00,91940154,91939656,1,Improper_Bostonian,Socialism,"better definition, and cited"
2006-12-04T05:20:58+00:00,91939656,91939585,1,Improper_Bostonian,Socialism,
2006-12-04T05:20:29+00:00,91939585,91938484,1,Improper_Bostonian,Socialism,more accurate definition of market socialism
2006-12-04T01:43:54+00:00,91905858,91905191,1,Improper_Bostonian,Capitalism,what do you mean invested in trade? this is bad grammar.
2006-12-04T01:39:50+00:00,91905191,91901180,1,Improper_Bostonian,Capitalism,revert to Bostianian due to bad changes by WGee
2006-12-04T00:46:54+00:00,91895311,91895096,1,Improper_Bostonian,Capitalism,"""capitalism"" does not refer to the theories, but to the system. ""liberalism"" refers to the theories."
2006-12-04T00:45:41+00:00,91895096,91893662,1,Improper_Bostonian,Capitalism,"capital investment is privately directed, not state directed. also market is largely free"
2006-12-02T20:59:11+00:00,91651097,91643168,1,Improper_Bostonian,Capitalism,thgat is not self-referential. the definitions are from sources.
2006-12-02T03:40:20+00:00,91526004,91525962,1,Improper_Bostonian,Talk:Capitalism,/* Owner proprietors */
2006-12-02T03:39:59+00:00,91525962,90883061,1,Improper_Bostonian,Talk:Capitalism,/* Owner proprietors */
2006-12-02T03:38:40+00:00,91525772,91525696,1,Improper_Bostonian,Capitalism,
2006-12-02T03:38:09+00:00,91525696,91498449,1,Improper_Bostonian,Capitalism,pricing
2006-11-30T02:18:38+00:00,91061670,91020297,1,Improper_Bostonian,Socialism,"socialism is against private ownership of means of production, whether the owner is a worker or not"
2006-11-30T02:16:38+00:00,91061283,91030147,1,Improper_Bostonian,Capitalism,revertint to 64.132.153.229.  bad definition. investing in the trade of goods and services?  really awkward wording and misses the point. in capitalism prices are not set by the state
2006-11-29T14:26:04+00:00,90901934,90899809,1,Improper_Bostonian,Talk:Socialism,/* Worker ownership of the means of production */
2006-11-29T13:59:12+00:00,90897784,90897375,1,Improper_Bostonian,Talk:Controlled market,/* Merger? */
2006-11-29T13:55:09+00:00,90897131,90890538,1,Improper_Bostonian,Socialism,if it's private ownership of means of production it's not socialism
2006-11-29T13:43:54+00:00,90895491,90895216,1,Improper_Bostonian,Talk:Controlled market,/* Merger? */
2006-11-29T13:40:50+00:00,90895034,90894818,1,Improper_Bostonian,Capitalism,citation is merriam webster entry
2006-11-29T13:39:55+00:00,90894916,90894682,1,Improper_Bostonian,Talk:Controlled market,/* Merger? */
2006-11-29T13:37:04+00:00,90894519,90892190,1,Improper_Bostonian,Capitalism,"if most markets arent free, it's not capitalism"
2006-11-29T13:33:01+00:00,90893943,90892930,1,Improper_Bostonian,Talk:Controlled market,
2006-11-29T13:09:55+00:00,90891143,90890440,1,Improper_Bostonian,Talk:Socialism,/* Worker ownership of the means of production */
2006-11-29T12:55:44+00:00,90889473,90883155,1,Improper_Bostonian,Talk:Socialism,/* Worker ownership of the means of production */
2006-11-29T03:45:12+00:00,90828593,90751958,1,Improper_Bostonian,Socialism,socialists oppose worker ownership of the means of production if it's private ownership
2006-11-28T20:57:28+00:00,90740116,90739507,1,Improper_Bostonian,Controlled market,
2006-11-28T20:54:50+00:00,90739507,90737776,1,Improper_Bostonian,Controlled market,
2006-11-28T20:47:09+00:00,90737776,90737628,1,Improper_Bostonian,Controlled market,
2006-11-28T20:46:37+00:00,90737628,90737206,1,Improper_Bostonian,Controlled market,
2006-11-28T20:45:02+00:00,90737206,90736304,1,Improper_Bostonian,Controlled market,
2006-11-28T20:41:19+00:00,90736304,90734908,1,Improper_Bostonian,Controlled market,
2006-11-28T20:39:53+00:00,90735990,85301586,1,Improper_Bostonian,Price system,
2006-11-28T20:34:30+00:00,90734908,90734724,1,Improper_Bostonian,Controlled market,
2006-11-28T20:33:41+00:00,90734724,90734342,1,Improper_Bostonian,Controlled market,
2006-11-28T20:32:10+00:00,90734342,90733231,1,Improper_Bostonian,Controlled market,
2006-11-28T20:27:16+00:00,90733231,90732999,1,Improper_Bostonian,Controlled market,
2006-11-28T20:26:06+00:00,90732999,90732035,1,Improper_Bostonian,Controlled market,
2006-11-28T20:23:36+00:00,90732509,90732347,1,Improper_Bostonian,Capitalism,
2006-11-28T20:22:51+00:00,90732347,90729658,1,Improper_Bostonian,Capitalism,
2006-11-28T20:21:20+00:00,90732035,90731802,1,Improper_Bostonian,Controlled market,
2006-11-28T20:20:08+00:00,90731802,67743642,1,Improper_Bostonian,Controlled market,
2006-11-28T20:10:31+00:00,90729658,90656084,1,Improper_Bostonian,Capitalism,market has to be free
2006-11-28T20:06:21+00:00,90728719,90671674,1,Improper_Bostonian,Talk:Capitalism,/* Owner proprietors */
2006-11-28T19:46:20+00:00,90724357,90723847,1,Improper_Bostonian,Talk:Socialism,/* Worker ownership of the means of production */
2006-11-28T19:43:51+00:00,90723847,90690677,1,Improper_Bostonian,Talk:Socialism,/* Worker ownership of the means of production */
2006-11-27T19:31:20+00:00,90491188,90461596,1,Improper_Bostonian,Talk:Socialism,
2006-11-27T18:57:45+00:00,90484270,90482442,1,Improper_Bostonian,Talk:Capitalism,/* Owner proprietors */
2006-11-27T18:48:49+00:00,90482442,90482369,1,Improper_Bostonian,Talk:Capitalism,/* Owner proprietors */
2006-11-27T18:48:31+00:00,90482369,90479478,1,Improper_Bostonian,Talk:Capitalism,/* Owner proprietors */
2006-11-27T18:15:51+00:00,90475745,90474647,1,Improper_Bostonian,Talk:Capitalism,/* Owner proprietors */
2006-11-27T17:59:37+00:00,90472661,90472541,1,Improper_Bostonian,Capitalism,
2006-11-27T17:59:02+00:00,90472541,90471303,1,Improper_Bostonian,Capitalism,"investment, production, and distribution decisions made in a free market"
2006-11-27T17:52:56+00:00,90471303,90468598,1,Improper_Bostonian,Capitalism,this is awkward sentence and idea
2006-11-27T17:51:30+00:00,90470986,90470875,1,Improper_Bostonian,Talk:Capitalism,/* Owner proprietors */
2006-11-27T17:39:25+00:00,90468598,90468286,1,Improper_Bostonian,Capitalism,that's not true. most businesses in the U.S. for example are sole proprieterships. You think most businesses in the US are outside of capitalism?
2006-11-27T17:32:50+00:00,90467213,90466394,1,Improper_Bostonian,Capitalism,that's not true. you deny that a sole-proprietership is capitalist?
2006-11-27T17:30:50+00:00,90466796,90466014,1,Improper_Bostonian,Talk:Capitalism,/* Lead para */
2006-11-27T17:25:44+00:00,90465796,90465224,1,Improper_Bostonian,Capitalism,you dont have to have employees to be a capitalist entity
2006-11-27T17:22:47+00:00,90465224,90426212,1,Improper_Bostonian,Capitalism,"if they're not private owners, then it's not capitalism"
2006-11-27T17:20:13+00:00,90464731,90395651,1,Improper_Bostonian,Talk:Capitalism,/* Lead para */
2006-11-25T03:53:32+00:00,89957961,89957914,1,Improper_Bostonian,Talk:Capitalism,/* Lead para */
2006-11-25T03:53:12+00:00,89957914,89792869,1,Improper_Bostonian,Talk:Capitalism,/* Lead para */
2006-11-25T03:50:02+00:00,89957521,89891722,1,Improper_Bostonian,Capitalism,"market has to be largely free, and investments determined by private decision"
2006-11-24T02:29:13+00:00,89755006,89633337,1,Improper_Bostonian,Talk:Capitalism,/* Lead para */
2006-11-24T02:27:17+00:00,89754746,89747105,1,Improper_Bostonian,Capitalism,"if market is not ""largely free"" then it's not capitalism; if investment isn't privately determined it's not capitalism."
2006-11-22T17:33:32+00:00,89481318,89478608,1,Improper_Bostonian,Capitalism,
2006-11-22T17:32:40+00:00,89481128,88393764,1,Improper_Bostonian,Private sector,it's simply all that is outside the state
2006-11-22T17:19:16+00:00,89478608,89478513,1,Improper_Bostonian,Capitalism,
2006-11-22T17:18:52+00:00,89478513,89454109,1,Improper_Bostonian,Capitalism,improved definition
2006-11-22T17:12:06+00:00,89477123,89476406,1,Improper_Bostonian,Talk:Capitalism,/* Lead para */
2006-11-22T17:08:20+00:00,89476406,89475875,1,Improper_Bostonian,Talk:Capitalism,/* Lead para */
2006-11-22T17:01:25+00:00,89474944,89472737,1,Improper_Bostonian,Talk:Capitalism,/* Lead para */
2006-11-22T16:46:35+00:00,89471973,89471814,1,Improper_Bostonian,Talk:Capitalism,/* Lead para */
2006-11-22T16:45:49+00:00,89471814,89470898,1,Improper_Bostonian,Talk:Capitalism,/* Lead para */
2006-11-22T16:34:08+00:00,89469585,89468356,1,Improper_Bostonian,Talk:Capitalism,/* Lead para */
2006-11-22T16:20:22+00:00,89467293,89466978,1,Improper_Bostonian,Talk:Capitalism,/* Capitalism in Eastern Europe */
2006-11-22T16:18:30+00:00,89466978,89465493,1,Improper_Bostonian,Talk:Capitalism,/* Capitalism in Eastern Europe */
2006-11-22T15:52:01+00:00,89462606,89462351,1,Improper_Bostonian,Talk:Capitalism,/* Lead para */
2006-11-22T15:50:18+00:00,89462351,89410844,1,Improper_Bostonian,Talk:Capitalism,/* Lead para */
2006-11-21T17:34:23+00:00,89264545,89261417,1,Improper_Bostonian,Talk:Capitalism,/* Lead para */
2006-11-21T17:31:25+00:00,89263984,89263836,1,Improper_Bostonian,Capitalism,
2006-11-21T17:30:33+00:00,89263836,89256986,1,Improper_Bostonian,Capitalism,a note on state capitalism
2006-11-21T17:16:23+00:00,89261417,89259268,1,Improper_Bostonian,Talk:Capitalism,/* Lead para */
2006-11-21T16:54:03+00:00,89257295,89256184,1,Improper_Bostonian,Talk:Capitalism,/* Lead para */
2006-11-21T16:43:25+00:00,89255462,89255251,1,Improper_Bostonian,Capitalism,"""capitalism"" does not refer to ""state capitalism"""
2006-11-21T16:41:00+00:00,89255000,89254699,1,Improper_Bostonian,Capitalism,investment is not considered a means of production
2006-11-21T16:35:45+00:00,89254031,89252471,1,Improper_Bostonian,Capitalism,if there is no private investment it's not capitalism; this definition doesn't clarify whether it's public or private investment
2006-11-21T16:26:34+00:00,89252471,89252300,1,Improper_Bostonian,Capitalism,mainly to largely
2006-11-21T16:25:33+00:00,89252300,89251719,1,Improper_Bostonian,Capitalism,"""free market"" doesn't mean ABSOLUTELY free in common parlance;  i changed it to say ""mainly free market"" to satisfy you."
2006-11-21T16:14:07+00:00,89250396,89195275,1,Improper_Bostonian,Capitalism,has to be a free market. if prices are set by the state it's socialism
2006-11-20T22:11:28+00:00,89097919,89094203,1,Improper_Bostonian,Capitalism,it has to be a free market. if prices are set by government its not capitalism.
2006-07-31T19:30:35+00:00,66906164,66905799,1,IndividualistAnarchist,Talk:Anarcho-capitalism,/* The sockpuppet [[straw-man]] */
2006-07-31T19:28:17+00:00,66905799,66905663,1,IndividualistAnarchist,Talk:Anarcho-capitalism,/* The sockpuppet [[straw-man]] */
2006-07-31T19:27:28+00:00,66905663,66905508,1,IndividualistAnarchist,Talk:Anarcho-capitalism,/* The sockpuppet [[straw-man]] */
2006-07-31T19:26:33+00:00,66905508,66905465,1,IndividualistAnarchist,Talk:Anarcho-capitalism,/* The sockpuppet [[straw-man]] */
2006-07-31T19:24:35+00:00,66905200,66903986,1,IndividualistAnarchist,User talk:IndividualistAnarchist,
2006-07-31T19:17:02+00:00,66903986,66902710,1,IndividualistAnarchist,User talk:IndividualistAnarchist,
2006-07-31T19:09:00+00:00,66902710,66902101,1,IndividualistAnarchist,User talk:IndividualistAnarchist,
2006-07-31T19:05:21+00:00,66902101,66901253,1,IndividualistAnarchist,User talk:IndividualistAnarchist,
2006-07-31T19:00:22+00:00,66901253,66892669,1,IndividualistAnarchist,User talk:IndividualistAnarchist,
2006-07-31T18:26:35+00:00,66895305,66894843,1,IndividualistAnarchist,Talk:Anarcho-capitalism,/* The sockpuppet [[straw-man]] */
2006-07-31T18:23:54+00:00,66894843,66894309,1,IndividualistAnarchist,Talk:Anarcho-capitalism,/* The sockpuppet [[straw-man]] */
2006-07-31T17:57:16+00:00,66890426,66889393,1,IndividualistAnarchist,Anarchism and anarcho-capitalism,
2006-07-31T17:56:31+00:00,66890306,66889933,1,IndividualistAnarchist,Anarcho-capitalism,/* Individualist anarchism in the United States */
2006-07-31T17:54:13+00:00,66889933,66881232,1,IndividualistAnarchist,Anarcho-capitalism,"/* Individualist anarchism in the United States */ fixed some source ..added page numbers, etc"
2006-07-31T17:50:50+00:00,66889393,66887995,1,IndividualistAnarchist,Anarchism and anarcho-capitalism,added a source
2006-07-31T17:45:28+00:00,66888479,66888422,1,IndividualistAnarchist,User talk:Intangible,/* Rocker */
2006-07-31T17:45:10+00:00,66888422,66742694,1,IndividualistAnarchist,User talk:Intangible,/* Rocker */
2006-07-31T17:42:44+00:00,66887995,66887516,1,IndividualistAnarchist,Anarchism and anarcho-capitalism,added a source
2006-07-31T17:39:55+00:00,66887516,66885899,1,IndividualistAnarchist,Anarchism and anarcho-capitalism,fixing page number
2006-07-31T17:34:07+00:00,66886485,66886394,1,IndividualistAnarchist,Talk:Anarcho-capitalism,/* Improper Citations */
2006-07-31T17:33:33+00:00,66886394,66886002,1,IndividualistAnarchist,Talk:Anarcho-capitalism,/* Improper Citations */
2006-07-31T17:30:24+00:00,66885899,66884966,1,IndividualistAnarchist,Anarchism and anarcho-capitalism,added page number for source and added an additional source
2006-07-31T17:28:29+00:00,66885603,66884943,1,IndividualistAnarchist,Anarchism,/* The Americans */ added page number for source
2006-07-31T17:24:10+00:00,66884943,66884464,1,IndividualistAnarchist,Anarchism,added a page number for a source
2006-07-31T17:20:13+00:00,66884350,66884090,1,IndividualistAnarchist,Talk:Anarcho-capitalism,/* Improper Citations */
2006-07-31T17:15:15+00:00,66883588,66882029,1,IndividualistAnarchist,Talk:Anarcho-capitalism,/* Improper Citations */
2006-07-28T01:56:00+00:00,66272787,66272719,1,IndividualistAnarchist,User talk:IndividualistAnarchist,
2006-07-28T01:55:28+00:00,66272719,66263458,1,IndividualistAnarchist,User talk:IndividualistAnarchist,
2006-07-28T01:30:41+00:00,66269763,66231444,1,IndividualistAnarchist,Talk:Anarchism and anarcho-capitalism,/* True form of anarchism? */
2006-07-27T19:25:33+00:00,66213716,66213555,1,IndividualistAnarchist,Talk:Collectivism (disambiguation),"/* Pejorative, perhaps? */"
2006-07-27T19:24:42+00:00,66213555,66213216,1,IndividualistAnarchist,Talk:Collectivism (disambiguation),"/* Pejorative, perhaps? */"
2006-07-27T19:23:52+00:00,66213421,66213012,1,IndividualistAnarchist,User talk:IndividualistAnarchist,
2006-07-27T19:22:41+00:00,66213216,66212225,1,IndividualistAnarchist,Talk:Collectivism (disambiguation),"/* Pejorative, perhaps? */"
2006-07-27T19:17:06+00:00,66212225,66211403,1,IndividualistAnarchist,Talk:Collectivism (disambiguation),"/* Pejorative, perhaps? */"
2006-07-27T19:10:10+00:00,66210990,66210647,1,IndividualistAnarchist,Anarcho-capitalism,
2006-07-27T19:08:18+00:00,66210629,66207918,1,IndividualistAnarchist,Anarcho-capitalism,link to anti-anarcho-communism article
2006-07-27T19:02:16+00:00,66209590,66208898,1,IndividualistAnarchist,User talk:IndividualistAnarchist,deleting harrassing/trolling/accusals
2006-07-27T18:51:58+00:00,66207918,66206805,1,IndividualistAnarchist,Anarcho-capitalism,added a source from Rothbard describing how the old individualists economics were flawed
2006-07-27T18:48:42+00:00,66207361,66167148,1,IndividualistAnarchist,Talk:Collectivism (disambiguation),"/* Pejorative, perhaps? */"
2006-07-27T18:37:27+00:00,66205500,66204378,1,IndividualistAnarchist,Talk:Anarchism,/* Thomas Jefferson and OR */
2006-07-27T18:31:08+00:00,66204390,66198796,1,IndividualistAnarchist,Anarcho-capitalism,profit exploitation theory based in flawed economics
2006-07-27T18:24:25+00:00,66203307,66152907,1,IndividualistAnarchist,Collectivism (disambiguation),"sources were asked for this earlier and none were presented, which is why this was deleted. Please do not put it back in."
2006-07-27T18:11:57+00:00,66201107,66200961,1,IndividualistAnarchist,Talk:Individualist anarchism,/* Godwin on property */
2006-07-27T18:10:58+00:00,66200961,66172580,1,IndividualistAnarchist,Talk:Individualist anarchism,/* Godwin on property */
2006-07-27T14:20:18+00:00,66163213,66148688,1,IndividualistAnarchist,Talk:Individualist anarchism,/* Godwin on property */
2006-07-31T19:13:29+00:00,66903422,66903364,1,TheIndividualist,Wikipedia talk:Ignore all rules,/* Supporters */
2006-07-31T19:13:11+00:00,66903364,66902275,1,TheIndividualist,Wikipedia talk:Ignore all rules,/* Supporters */
2006-07-31T17:05:07+00:00,66882029,66881615,1,TheIndividualist,Talk:Anarcho-capitalism,/* Improper Citations */
2006-07-31T17:02:42+00:00,66881666,66833499,1,TheIndividualist,User talk:Jack Upland,/* Paradox */
2006-07-31T16:59:09+00:00,66881113,66880949,1,TheIndividualist,Talk:Anarchism,/* Improper Citations */
2006-07-31T16:57:55+00:00,66880949,66868774,1,TheIndividualist,Talk:Anarchism,/* Improper Citations */
2006-07-31T16:55:28+00:00,66880646,66880438,1,TheIndividualist,Talk:Anarcho-capitalism,/* Improper Citations */
2006-07-31T16:54:09+00:00,66880438,66880049,1,TheIndividualist,Talk:Anarcho-capitalism,/* Improper Citations */
2006-07-31T16:52:16+00:00,66880124,66844069,1,TheIndividualist,Anarchism and anarcho-capitalism,put back in sources with page numbers that someone deleted
2006-07-31T16:47:09+00:00,66879392,66879124,1,TheIndividualist,Talk:Anarcho-capitalism,/* Improper Citations */
2006-07-31T16:45:34+00:00,66879124,66878595,1,TheIndividualist,Talk:Anarcho-capitalism,/* Improper Citations */
2006-07-31T04:29:18+00:00,66799340,66798744,1,TheIndividualist,Labor theory of value,/* Modern criticisms */ value not objective
2006-07-31T04:23:43+00:00,66798744,66797631,1,TheIndividualist,Labor theory of value,/* Modern criticisms */ this is better
2006-07-31T04:00:50+00:00,66796060,66795024,1,TheIndividualist,Labor theory of value,/* Modern criticisms */
2006-07-31T03:52:09+00:00,66795024,66794773,1,TheIndividualist,Labor theory of value,/* Modern criticisms */ more labor can make a good less useful too
2006-07-31T03:50:03+00:00,66794773,66794348,1,TheIndividualist,Labor theory of value,/* Modern criticisms */ noting that it does not deny that labor applied to resources can make them more useful
2006-07-31T03:46:26+00:00,66794348,66792134,1,TheIndividualist,Labor theory of value,/* Modern criticisms */ utility toward what? satisfying wants
2006-07-31T03:05:21+00:00,66789035,66788855,1,TheIndividualist,Labor theory of value,
2006-07-31T03:04:04+00:00,66788855,66788594,1,TheIndividualist,Labor theory of value,
2006-07-31T03:02:17+00:00,66788594,66788401,1,TheIndividualist,Labor theory of value,
2006-07-31T03:01:04+00:00,66788401,66788258,1,TheIndividualist,Labor theory of value,
2006-07-31T03:00:08+00:00,66788258,66788196,1,TheIndividualist,Labor theory of value,
2006-07-31T02:59:40+00:00,66788196,66787613,1,TheIndividualist,Labor theory of value,mar
2006-07-31T02:55:26+00:00,66787606,66787538,1,TheIndividualist,Anarcho-capitalism,/* Individualist anarchism in the United States */
2006-07-31T02:54:49+00:00,66787538,66787348,1,TheIndividualist,Anarcho-capitalism,/* Individualist anarchism in the United States */
2006-07-31T02:53:26+00:00,66787348,66787246,1,TheIndividualist,Anarcho-capitalism,/* Individualist anarchism in the United States */
2006-07-31T02:52:36+00:00,66787246,66782365,1,TheIndividualist,Anarcho-capitalism,/* Individualist anarchism in the United States */ noting the sense that they think capitalism can't exist without a state  (bad economics)
2006-07-31T02:15:39+00:00,66782736,66782659,1,TheIndividualist,Labor theory of value,
2006-07-31T02:15:06+00:00,66782659,66578314,1,TheIndividualist,Labor theory of value,marx's version
2006-07-31T02:07:45+00:00,66781735,66762629,1,TheIndividualist,Talk:Anarchism,/* Can someone answer my question? (communist or socialist) */
2006-07-31T02:05:08+00:00,66781407,66772258,1,TheIndividualist,Anarchism and anarcho-capitalism,now there are several
2006-07-31T02:01:19+00:00,66780834,66780195,1,TheIndividualist,Anarcho-capitalism,put sources back in...they must have been accidently deleted before.
2006-07-31T01:56:21+00:00,66780195,66770738,1,TheIndividualist,Anarcho-capitalism,put individualist anarchism label back in. many sources say it is individualist anarchism.
2006-07-30T22:17:10+00:00,66750506,66750437,1,TheIndividualist,Individualist anarchism,/* Types of individualist anarchism= */
2006-07-30T22:16:42+00:00,66750437,66736907,1,TheIndividualist,Individualist anarchism,"there is not ONE individualist anarchism. Each philosopher has his own. Stirner's was very different from Lysander Spooners, for example."
2006-07-30T20:11:59+00:00,66732174,66732096,1,TheIndividualist,Anarchism,
2006-07-30T20:11:31+00:00,66732096,66731649,1,TheIndividualist,Anarchism,/* The Americans */
2006-07-30T20:08:32+00:00,66731649,66697889,1,TheIndividualist,Anarchism,/* The Americans */ difference from stirnerism
2006-07-30T20:03:43+00:00,66730899,66730610,1,TheIndividualist,Individualist anarchism,
2006-07-30T20:01:49+00:00,66730610,66617043,1,TheIndividualist,Individualist anarchism,"moved Stirner out of ""origins"". What did that mean? he was an individualist anarchist...not just an ""origin"".  the american variety isnt the only individualist anarchism."
2006-07-30T19:36:27+00:00,66726659,66726548,1,TheIndividualist,Anarcho-capitalism,
2006-07-30T19:35:40+00:00,66726548,66639082,1,TheIndividualist,Anarcho-capitalism,short for capitalist anarchism
2006-07-30T19:22:48+00:00,66724685,66716378,1,TheIndividualist,Talk:Anarchism,/* Can someone answer my question? (communist or socialist) */
2006-07-30T15:55:44+00:00,66696818,66686237,1,TheIndividualist,Anarchism,cleary false information. it's not even true that all anti-capitalist individualists opposed rent. I'm reverting blah's stuff.
2006-07-30T15:53:07+00:00,66696516,66696294,1,TheIndividualist,Talk:Anarchism,/* Can someone answer my question? (communist or socialist) */
2006-07-30T15:51:31+00:00,66696294,66696170,1,TheIndividualist,Talk:Anarchism,/* Can someone answer my question? (communist or socialist) */
2006-07-30T15:50:40+00:00,66696170,66695824,1,TheIndividualist,Talk:Anarchism,
2006-07-30T15:47:52+00:00,66695824,66695613,1,TheIndividualist,Talk:Anarchism,/* Can someone answer my question? (communist or socialist) */
2006-07-30T15:46:04+00:00,66695613,66691834,1,TheIndividualist,Talk:Anarchism,/* Can someone answer my question? (communist or socialist) */
2006-07-30T06:26:13+00:00,66647057,66646727,1,TheIndividualist,Anarchism,/* The Americans */
2006-07-30T06:22:38+00:00,66646727,66646620,1,TheIndividualist,Anarchism,/* The Americans */
2006-07-30T06:21:30+00:00,66646620,66646501,1,TheIndividualist,Anarchism,/* The Americans */ different from stirner
2006-07-30T06:20:15+00:00,66646501,66646473,1,TheIndividualist,Anarchism,/* Max Stirner's egoism */
2006-07-30T06:20:00+00:00,66646473,66640788,1,TheIndividualist,Anarchism,/* Max Stirner's egoism */ ego and own is a founding text in individualist anarchism
2006-07-30T05:48:25+00:00,66643287,66642999,1,TheIndividualist,Talk:Anarcho-capitalism,/* Other-language Wikipedias */
2006-07-30T05:42:02+00:00,66642616,66642461,1,TheIndividualist,Talk:Anarcho-capitalism,/* Other-language Wikipedias */
2006-07-30T05:40:36+00:00,66642461,66642111,1,TheIndividualist,Talk:Anarcho-capitalism,/* Other-language Wikipedias */
2006-07-30T05:37:21+00:00,66642111,66641591,1,TheIndividualist,Talk:Anarcho-capitalism,/* Other-language Wikipedias */
2006-07-30T05:28:06+00:00,66641099,66640239,1,TheIndividualist,Talk:Anarcho-capitalism,/* Other-language Wikipedias */
2006-07-30T05:25:16+00:00,66640788,66639993,1,TheIndividualist,Anarchism,/* Anarchism and the individual */ why was Max Stirner separated from the individualist anarchists when he IS an individualist anarchist?
2006-07-30T05:18:35+00:00,66639993,66628792,1,TheIndividualist,Anarchism,some individualist anarchists are not anti-capitalist
2006-07-30T05:10:55+00:00,66639082,66618175,1,TheIndividualist,Anarcho-capitalism,"/* Anarcho-capitalism in the real world */ this doesnt say that iceland was anarcho-capitalist but that it was similar, so i'm chainging the heading"
2006-07-30T05:08:16+00:00,66638749,66638382,1,TheIndividualist,Talk:Anarcho-capitalism,/* Other-language Wikipedias */
2006-07-30T05:05:29+00:00,66638382,66638207,1,TheIndividualist,Talk:Anarcho-capitalism,/* Other-language Wikipedias */
2006-07-30T05:04:07+00:00,66638207,66638004,1,TheIndividualist,Talk:Anarcho-capitalism,/* Other-language Wikipedias */
2006-07-30T05:02:13+00:00,66638004,66637768,1,TheIndividualist,Talk:Anarcho-capitalism,/* Medieval Iceland */
2006-07-30T04:58:38+00:00,66637597,66637498,1,TheIndividualist,Talk:Anarcho-capitalism,/* Other-language Wikipedias */
2006-07-30T04:57:50+00:00,66637498,66636958,1,TheIndividualist,Talk:Anarcho-capitalism,/* Other-language Wikipedias */
2006-07-30T04:52:37+00:00,66636958,66636862,1,TheIndividualist,Talk:Anarcho-capitalism,/* Medieval Iceland */
2006-07-30T04:49:43+00:00,66636602,66636200,1,TheIndividualist,Talk:Anarcho-capitalism,/* Medieval Iceland */
2006-07-30T04:43:14+00:00,66635828,66635532,1,TheIndividualist,Talk:Anarcho-capitalism,/* Medieval Iceland */
2006-07-30T04:40:46+00:00,66635532,66635441,1,TheIndividualist,Talk:Anarcho-capitalism,/* Medieval Iceland */
2006-07-30T04:40:06+00:00,66635441,66635238,1,TheIndividualist,Talk:Anarcho-capitalism,/* Other-language Wikipedias */
2006-07-30T04:38:21+00:00,66635238,66634300,1,TheIndividualist,Talk:Anarcho-capitalism,/* Other-language Wikipedias */
2006-07-30T04:29:41+00:00,66634267,66633913,1,TheIndividualist,Talk:Anarcho-capitalism,/* Other-language Wikipedias */
2006-07-30T04:25:41+00:00,66633863,66633781,1,TheIndividualist,Talk:Anarcho-capitalism,/* Other-language Wikipedias */
2006-07-30T04:23:29+00:00,66633637,66633117,1,TheIndividualist,Talk:Collectivism (disambiguation),"/* Pejorative, perhaps? */"
2006-07-30T04:20:33+00:00,66633330,66633165,1,TheIndividualist,Talk:Anarcho-capitalism,/* Medieval Iceland */
2006-07-30T04:18:44+00:00,66633165,66633060,1,TheIndividualist,Talk:Anarcho-capitalism,/* Other-language Wikipedias */
2006-07-30T04:17:46+00:00,66633060,66632568,1,TheIndividualist,Talk:Anarcho-capitalism,/* Other-language Wikipedias */
2006-07-30T04:14:37+00:00,66632685,66632517,1,TheIndividualist,Talk:Collectivism (disambiguation),"/* Pejorative, perhaps? */"
2006-07-30T04:13:11+00:00,66632507,66612006,1,TheIndividualist,Paradox of value,reverting to 84.208.84.201. Smith could not solve the paradox. this is well known.
2006-07-30T04:12:15+00:00,66632378,66632186,1,TheIndividualist,User talk:Jack Upland,/* Paradox */
2006-07-30T04:10:48+00:00,66632186,65273478,1,TheIndividualist,User talk:Jack Upland,
2006-07-30T04:00:20+00:00,66630929,66630618,1,TheIndividualist,Talk:Anarcho-capitalism,/* Other-language Wikipedias */
2006-07-30T03:58:48+00:00,66630734,66629640,1,TheIndividualist,Talk:Collectivism (disambiguation),"/* Pejorative, perhaps? */"
2006-07-30T03:55:29+00:00,66630313,66630108,1,TheIndividualist,Talk:Anarcho-capitalism,/* Other-language Wikipedias */
2006-07-30T03:53:33+00:00,66630108,66629811,1,TheIndividualist,Talk:Anarcho-capitalism,/* Other-language Wikipedias */
2006-07-30T03:43:37+00:00,66629008,66628613,1,TheIndividualist,Talk:Anarcho-capitalism,/* Other-language Wikipedias */
2006-07-30T03:39:27+00:00,66628557,66628191,1,TheIndividualist,Talk:Anarcho-capitalism,/* Other-language Wikipedias */
2006-07-30T03:36:27+00:00,66628191,66628107,1,TheIndividualist,Talk:Anarcho-capitalism,/* Other-language Wikipedias */
2006-07-30T03:34:53+00:00,66627999,66595476,1,TheIndividualist,Collectivism (disambiguation),collectivism means different things. these definitions are not all interpretations of the same concept.
2006-07-30T03:32:54+00:00,66627762,66620185,1,TheIndividualist,Talk:Collectivism (disambiguation),"/* Pejorative, perhaps? */"
2006-07-30T00:04:31+00:00,66602709,66602576,1,TheIndividualist,Talk:Collectivism (disambiguation),"/* Pejorative, perhaps? */"
2006-07-30T00:03:30+00:00,66602576,66568033,1,TheIndividualist,Talk:Collectivism (disambiguation),"/* Pejorative, perhaps? */"
2006-07-29T23:58:47+00:00,66601980,66601585,1,TheIndividualist,Talk:Anarcho-capitalism,/* POV and OR */
2006-07-29T23:55:42+00:00,66601585,66583491,1,TheIndividualist,Talk:Anarcho-capitalism,/* POV and OR */
2006-07-29T19:03:46+00:00,66561299,66561112,1,TheIndividualist,Anarchism,/* Individualist anarchism */
2006-07-29T19:02:27+00:00,66561112,66552315,1,TheIndividualist,Anarchism,/* Individualist anarchism */ anarcho-capitalism a more modern form of individualist anarchism
2006-07-29T18:43:09+00:00,66558399,66558280,1,TheIndividualist,Labor theory of value,
2006-07-29T18:42:18+00:00,66558280,66552414,1,TheIndividualist,Labor theory of value,noting there are several forms
2006-07-29T18:27:01+00:00,66556113,66555954,1,TheIndividualist,Talk:Anarchism,/* Can someone answer my question? (communist or socialist) */
2006-07-29T18:24:02+00:00,66555642,66555437,1,TheIndividualist,Talk:Anarchism,/* Can someone answer my question? (communist or socialist) */
2006-07-29T18:11:46+00:00,66554045,66553388,1,TheIndividualist,Talk:Anarchism,/* Can someone answer my question? (communist or socialist) */
2006-07-29T18:03:01+00:00,66552848,66549970,1,TheIndividualist,Paradox of value,/* Marginal utility */ intro sentence
2006-07-29T17:59:30+00:00,66552414,66549326,1,TheIndividualist,Labor theory of value,/* The diamond-water paradox */
2006-07-29T17:56:31+00:00,66552005,66548679,1,TheIndividualist,Talk:Labor theory of value,/* added disambiguation */
2006-07-29T17:40:02+00:00,66549970,66549842,1,TheIndividualist,Paradox of value,/* Labor theory of value */ rewrote
2006-07-29T17:38:55+00:00,66549842,66549767,1,TheIndividualist,Paradox of value,
2006-07-29T17:38:16+00:00,66549767,66436038,1,TheIndividualist,Paradox of value,paradox not stated corrected. restated it.
2006-07-29T17:34:27+00:00,66549326,66547812,1,TheIndividualist,Labor theory of value,/* The diamond-water paradox */ corrected statement of paradox
2006-07-29T17:29:12+00:00,66548679,66548091,1,TheIndividualist,Talk:Labor theory of value,/* added disambiguation */
2006-07-29T17:22:24+00:00,66547812,66547296,1,TheIndividualist,Labor theory of value,
2006-07-29T17:18:27+00:00,66547296,66541249,1,TheIndividualist,Labor theory of value,correct definition
2006-07-29T17:13:35+00:00,66546708,66546307,1,TheIndividualist,Talk:Labor theory of value,/* added disambiguation */
2006-07-29T17:10:17+00:00,66546307,66545921,1,TheIndividualist,Talk:Labor theory of value,/* added disambiguation */
2006-07-29T17:01:34+00:00,66545287,66544376,1,TheIndividualist,Individualist anarchism,"/* Anarcho-capitalism */ only ""some"" individualist anarchists have labor theory of value. anarcho-capitalist don't."
2006-07-29T16:55:20+00:00,66544486,66542842,1,TheIndividualist,Anarcho-capitalism,fixing sources
2006-07-29T16:45:36+00:00,66543350,66543317,1,TheIndividualist,Talk:Anarcho-capitalism,/* POV and OR */
2006-07-29T16:45:17+00:00,66543317,66542933,1,TheIndividualist,Talk:Anarcho-capitalism,/* POV and OR */
2006-07-29T16:43:07+00:00,66543074,66542132,1,TheIndividualist,Anarchism,not all individualist anarchists oppose capitalism
2006-07-29T16:41:00+00:00,66542842,66542722,1,TheIndividualist,Anarcho-capitalism,
2006-07-29T16:39:55+00:00,66542722,66542603,1,TheIndividualist,Anarcho-capitalism,added sources
2006-07-29T16:36:21+00:00,66542250,66541785,1,TheIndividualist,Anarcho-capitalism,it is true that some consider it a form of individualist anarchism
2006-07-29T16:35:09+00:00,66542132,66542072,1,TheIndividualist,Anarchism,
2006-07-29T16:34:33+00:00,66542072,66542030,1,TheIndividualist,Anarchism,
2006-07-29T16:32:12+00:00,66541764,66541544,1,TheIndividualist,Talk:Labor theory of value,/* added disambiguation */
2006-07-29T16:22:19+00:00,66540536,66540234,1,TheIndividualist,Anarcho-capitalism,all those sources do consider it a form of individualist anarchism. anarcho-capitalists are not collectivists.
2006-07-29T16:20:53+00:00,66540365,66540258,1,TheIndividualist,Anarchism,actually some claim this. others claim capitalism has existed without state interference
2006-07-29T16:20:00+00:00,66540258,66540222,1,TheIndividualist,Anarchism,
2006-07-29T16:19:39+00:00,66540222,66540162,1,TheIndividualist,Anarchism,
2006-07-29T16:19:09+00:00,66540162,66540123,1,TheIndividualist,Anarchism,"POV claim that capitalism has ""required"" the state"
2006-07-29T16:16:51+00:00,66539877,66539742,1,TheIndividualist,Anarcho-capitalism,
2006-07-29T16:15:47+00:00,66539742,66538857,1,TheIndividualist,Anarcho-capitalism,added sources for it being individualist anarchism.
2006-07-29T16:02:44+00:00,66538060,66537331,1,TheIndividualist,Real and nominal value,/* Classical economics */ explanation about inflation
2006-07-29T15:56:53+00:00,66537331,64874647,1,TheIndividualist,Real and nominal value,classical economics usage
2006-07-29T15:53:00+00:00,66536868,66536671,1,TheIndividualist,Labor theory of value,irrelevant sentence
2006-07-29T15:51:16+00:00,66536671,66444702,1,TheIndividualist,Labor theory of value,removed nonsense and replaced with note what value refers to
2006-07-29T06:10:21+00:00,66484050,66483127,1,TheIndividualist,Anarcho-capitalism,deleted redundant sentence
2006-07-29T06:00:33+00:00,66483213,66481691,1,TheIndividualist,Talk:Anarcho-capitalism,/* Introductory paragraph */
2006-07-29T05:59:28+00:00,66483127,66483015,1,TheIndividualist,Anarcho-capitalism,
2006-07-29T05:58:12+00:00,66483015,66471260,1,TheIndividualist,Anarcho-capitalism,put in a first sentence definition upon request in talk
2006-07-29T04:07:53+00:00,66471260,66469045,1,TheIndividualist,Anarcho-capitalism,revertin to intangible. there have been a lot of substantive additions. try to be more selective instead of deleting everything. thanks.
2006-07-29T03:03:32+00:00,66463675,66463558,1,TheIndividualist,Talk:Anarchism,/* a response to your nasty attacks and condescention */
2006-07-29T03:02:32+00:00,66463558,66462945,1,TheIndividualist,Talk:Anarchism,/* a response to your nasty attacks and condescention */
2006-07-29T02:47:22+00:00,66461730,66460984,1,TheIndividualist,Talk:Anarchism,/* a response to your nasty attacks and condescention */
2006-07-29T02:40:43+00:00,66460937,66460675,1,TheIndividualist,Talk:Anarchism,/* a response to your nasty attacks and condescention */
2006-07-29T02:23:17+00:00,66458814,66457649,1,TheIndividualist,Talk:Anarchism,/* a response to your nasty attacks and condescention */
2006-07-29T02:19:44+00:00,66458441,66458424,1,TheIndividualist,Talk:Anarcho-capitalism,/* Concerns about the lead */
2006-07-29T02:19:33+00:00,66458424,66458221,1,TheIndividualist,Talk:Anarcho-capitalism,/* Concerns about the lead */
2006-07-29T02:12:34+00:00,66457649,66457295,1,TheIndividualist,Talk:Anarchism,/* a response to your nasty attacks and condescention */
2006-07-29T02:07:24+00:00,66457028,66456592,1,TheIndividualist,Talk:Anarchism,/* a response to your nasty attacks and condescention */
2006-07-28T21:54:55+00:00,66423861,66422799,1,TheIndividualist,Talk:Anarchism,/* a response to your nasty attacks and condescention */
2006-07-28T21:48:05+00:00,66422799,66421347,1,TheIndividualist,Talk:Anarchism,/* a response to your nasty attacks and condescention */
2006-07-28T21:39:02+00:00,66421347,66420929,1,TheIndividualist,Talk:Anarchism,/* a response to your nasty attacks and condescention */
2006-07-28T21:30:59+00:00,66420157,66419565,1,TheIndividualist,Talk:Anarchism,/* a response to your nasty attacks and condescention */ fixed an error
2006-07-28T21:26:56+00:00,66419565,66419432,1,TheIndividualist,Talk:Anarchism,/* Can someone answer my question? (communist or socialist) */
2006-07-28T21:24:41+00:00,66419199,66418246,1,TheIndividualist,Talk:Anarchism,/* Can someone answer my question? (communist or socialist) */
2006-07-28T21:17:13+00:00,66418027,66417393,1,TheIndividualist,Talk:Anarcho-capitalism,/* Libertatis Æquilibritas */
2006-07-28T21:14:43+00:00,66417607,66417344,1,TheIndividualist,Talk:Anarchism,/* weasel word */
2006-07-28T21:13:09+00:00,66417344,66415892,1,TheIndividualist,Talk:Anarchism,/* weasel word */
2006-07-28T21:09:38+00:00,66416804,66412518,1,TheIndividualist,Talk:Anarcho-capitalism,/* Libertatis Æquilibritas */
2006-07-28T20:36:26+00:00,66411481,66410181,1,TheIndividualist,Talk:Anarcho-capitalism,/* Libertatis Æquilibritas */
2006-07-28T20:29:20+00:00,66410408,66410103,1,TheIndividualist,Talk:Anarchism,/* weasel word */
2006-07-28T20:27:48+00:00,66410181,66409212,1,TheIndividualist,Talk:Anarcho-capitalism,/* Libertatis Æquilibritas */
2006-07-28T20:25:36+00:00,66409825,66409296,1,TheIndividualist,Talk:Anarchism,/* weasel word */
2006-07-28T20:21:51+00:00,66409212,66409048,1,TheIndividualist,Talk:Anarcho-capitalism,/* Libertatis Æquilibritas */
2006-07-28T20:20:49+00:00,66409048,66408566,1,TheIndividualist,Talk:Anarcho-capitalism,/* Libertatis Æquilibritas */
2006-07-28T20:18:27+00:00,66408682,66408602,1,TheIndividualist,Collectivism (disambiguation),
2006-07-28T20:17:50+00:00,66408602,66408366,1,TheIndividualist,Collectivism (disambiguation),political system definition
2006-07-28T20:16:22+00:00,66408366,66408303,1,TheIndividualist,Collectivism (disambiguation),
2006-07-28T20:16:01+00:00,66408303,66247503,1,TheIndividualist,Collectivism (disambiguation),put back in social system definition
2006-07-28T20:05:29+00:00,66406462,66405720,1,TheIndividualist,Talk:Anarcho-capitalism,/* Libertatis Æquilibritas */
2006-07-28T19:55:21+00:00,66404690,66404488,1,TheIndividualist,Paradox of value,/* Labor theory of value */
2006-07-28T19:54:06+00:00,66404488,66373730,1,TheIndividualist,Paradox of value,/* Labor theory of value */ further explanation
2006-07-28T19:48:04+00:00,66403514,66403285,1,TheIndividualist,Individualist anarchism,
2006-07-28T19:46:37+00:00,66403285,66402070,1,TheIndividualist,Individualist anarchism,this influence came later after it was already invented
2006-07-28T19:44:08+00:00,66402873,66402236,1,TheIndividualist,Talk:Anarcho-capitalism,/* Libertatis Æquilibritas */
2006-07-28T19:38:57+00:00,66402070,66359663,1,TheIndividualist,Individualist anarchism,began in america with warren
2006-07-28T19:24:12+00:00,66399798,66396654,1,TheIndividualist,Talk:Anarchism,/* Significance */
2006-07-28T19:12:09+00:00,66397782,66397530,1,TheIndividualist,Talk:Anarcho-capitalism,/* Libertatis Æquilibritas */
2006-07-28T19:10:46+00:00,66397530,66397444,1,TheIndividualist,Talk:Anarcho-capitalism,/* Libertatis Æquilibritas */
2006-07-28T19:09:44+00:00,66397349,66397044,1,TheIndividualist,Talk:Anarcho-capitalism,/* Libertatis Æquilibritas */
2006-07-28T19:08:00+00:00,66397044,66381014,1,TheIndividualist,Talk:Anarcho-capitalism,/* Libertatis Æquilibritas */
2006-07-28T19:02:57+00:00,66396150,66392332,1,TheIndividualist,Talk:Anarchism,/* Significance */
2006-07-28T18:57:36+00:00,66395273,66395208,1,TheIndividualist,Anarchism,
2006-07-28T18:57:04+00:00,66395208,66393416,1,TheIndividualist,Anarchism,capitalist individualists support capitalism
2006-07-28T16:55:14+00:00,66375895,66373951,1,TheIndividualist,Talk:Anarchism,/* a response to your nasty attacks and condescention */
2006-07-28T16:44:07+00:00,66374237,66374103,1,TheIndividualist,Anarchism,this does not apply to capitalist individualist anarchists
2006-07-28T16:43:09+00:00,66374103,66373117,1,TheIndividualist,Anarchism,fixed some screwed up grammar
2006-07-28T16:40:27+00:00,66373730,66373249,1,TheIndividualist,Paradox of value,/* Labor theory of value */
2006-07-28T16:37:07+00:00,66373249,66372445,1,TheIndividualist,Paradox of value,/* Classical solutions */
2006-07-28T16:31:24+00:00,66372445,66371914,1,TheIndividualist,Paradox of value,/* Labor theory of value */
2006-07-28T16:27:56+00:00,66371914,66371362,1,TheIndividualist,Paradox of value,/* Labor theory of value */
2006-07-28T16:24:22+00:00,66371362,66368488,1,TheIndividualist,Paradox of value,/* Labor theory of value */ example of failure of LTV
2006-07-28T16:04:26+00:00,66368488,66330836,1,TheIndividualist,Paradox of value,what??  this is all wrong. Adam Smith did NOT find a solution.
2006-07-28T15:58:31+00:00,66367622,66366276,1,TheIndividualist,Anarchism,"Revert to Lingeron. Blah please do not make a sourced statement say something other than what the source says. individualist anarchists support ""private property"" in product of labor exactly like anca"
2006-07-28T15:07:15+00:00,66360218,66327045,1,TheIndividualist,Labor theory of value,it is well known that diamond-water paradox is a problem for labor theory of value
2006-07-28T15:03:22+00:00,66359663,66340447,1,TheIndividualist,Individualist anarchism,emile armand was influenced by the americans...not the other way around
2006-07-28T05:03:32+00:00,66296462,66295025,1,TheIndividualist,Labor theory of value,
2006-07-28T05:01:04+00:00,66296208,66217901,1,TheIndividualist,Talk:Collectivism (disambiguation),"/* Pejorative, perhaps? */"
2006-07-28T04:51:27+00:00,66295025,66294553,1,TheIndividualist,Labor theory of value,
2006-07-28T04:47:11+00:00,66294553,66294359,1,TheIndividualist,Labor theory of value,
2006-07-28T04:45:30+00:00,66294359,66293972,1,TheIndividualist,Labor theory of value,
2006-07-28T04:42:01+00:00,66293972,66293902,1,TheIndividualist,Labor theory of value,
2006-07-28T04:41:16+00:00,66293902,66293791,1,TheIndividualist,Labor theory of value,
2006-07-28T04:40:07+00:00,66293791,65502937,1,TheIndividualist,Labor theory of value,theory on the decline because it cannot solve the diamond water paradox
2006-07-28T04:27:28+00:00,66292404,66291926,1,TheIndividualist,Talk:Anarchism,/* a response to your nasty attacks and condescention */
2006-07-28T04:10:22+00:00,66290514,66290168,1,TheIndividualist,Anarchism,/* Individualist anarchism */
2006-07-28T04:06:41+00:00,66290107,66288981,1,TheIndividualist,Anarchism,/* Individualist anarchism */ some fixes concerning labor theory of value and free market
2006-07-28T03:57:52+00:00,66288981,66288867,1,TheIndividualist,Anarchism,/* Individualist anarchism */
2006-07-28T03:57:05+00:00,66288867,66284620,1,TheIndividualist,Anarchism,/* Individualist anarchism */ noting that Tucker is not the end all of individualist anarchism because other individualist anarchists have different ideas
2006-07-28T03:52:02+00:00,66288249,66288187,1,TheIndividualist,Anarcho-capitalism,/* Private property */
2006-07-28T03:51:35+00:00,66288187,66282370,1,TheIndividualist,Anarcho-capitalism,/* Private property */ minor fixes
2006-07-28T03:01:09+00:00,66281338,66280484,1,TheIndividualist,Individualist anarchism,"/* Anarcho-capitalism */ incorrect. They support full private property rights in the product of labor, just like the anarcho-capitalists."
2006-07-27T04:07:30+00:00,66095214,66095093,1,TheIndividualist,Talk:Individualist anarchism,/* Godwin on property */
2006-07-27T04:06:21+00:00,66095093,66094966,1,TheIndividualist,Talk:Individualist anarchism,/* Godwin on property */
2006-07-27T04:04:04+00:00,66094818,66094310,1,TheIndividualist,Talk:Individualist anarchism,/* Godwin on property */
2006-07-27T04:00:08+00:00,66094310,66093869,1,TheIndividualist,Talk:Individualist anarchism,/* Godwin on property */
2006-07-27T03:56:27+00:00,66093869,66093686,1,TheIndividualist,Talk:Individualist anarchism,/* Godwin on property */
2006-07-27T03:55:01+00:00,66093686,66093547,1,TheIndividualist,Talk:Individualist anarchism,/* Godwin on property */
2006-07-27T03:53:52+00:00,66093547,66093522,1,TheIndividualist,Talk:Individualist anarchism,/* Godwin on property */
2006-07-27T03:53:39+00:00,66093522,66079808,1,TheIndividualist,Talk:Individualist anarchism,/* Godwin on property */
2006-07-27T02:05:37+00:00,66079644,66079397,1,TheIndividualist,Talk:Individualist anarchism,/* Godwin on property */
2006-07-27T02:03:54+00:00,66079397,66078605,1,TheIndividualist,Talk:Individualist anarchism,/* Original research (again) */
2006-07-27T01:57:55+00:00,66078605,66077405,1,TheIndividualist,Talk:Individualist anarchism,/* Original research (again) */
2006-07-27T01:54:37+00:00,66078201,66077024,1,TheIndividualist,Talk:Anarchism and anarcho-capitalism,/* True form of anarchism? */
2006-07-27T01:52:47+00:00,66077972,65992996,1,TheIndividualist,Talk:Anarchism,/* Thomas Jefferson and OR */
2006-07-27T01:45:02+00:00,66077024,66076401,1,TheIndividualist,Talk:Anarchism and anarcho-capitalism,/* True form of anarchism? */
2006-07-27T01:40:39+00:00,66076401,66074983,1,TheIndividualist,Talk:Anarchism and anarcho-capitalism,/* True form of anarchism? */
2006-07-27T01:35:33+00:00,66075769,66074334,1,TheIndividualist,Individualist anarchism,/* Anarcho-capitalism */ rothbard though tucker and spooner were bad economists
2006-07-27T01:29:28+00:00,66074983,66073632,1,TheIndividualist,Talk:Anarchism and anarcho-capitalism,/* True form of anarchism? */
2006-07-27T01:27:16+00:00,66074700,66073371,1,TheIndividualist,Anarchism and anarcho-capitalism,/* Anarcho-capitalism as a form of [[individualist anarchism]] */ wrong version was moved..replaced with evolved version.
2006-07-26T23:56:49+00:00,66061959,61256631,1,TheIndividualist,Talk:Anarchism and anarcho-capitalism,
2006-07-26T23:41:10+00:00,66059515,66059022,1,TheIndividualist,Individualist anarchism,/* Anarcho-capitalism */
2006-07-26T23:37:38+00:00,66059022,66058869,1,TheIndividualist,Individualist anarchism,/* Anarcho-capitalism */
2006-07-26T23:36:36+00:00,66058869,66058494,1,TheIndividualist,Individualist anarchism,/* Anarcho-capitalism */
2006-07-26T23:34:05+00:00,66058494,66057834,1,TheIndividualist,Individualist anarchism,/* The American tradition */
2006-07-26T23:29:40+00:00,66057834,66055566,1,TheIndividualist,Individualist anarchism,/* Anarcho-capitalism */ fixed misunderstanding of the law issue
2006-07-26T23:15:49+00:00,66055566,66053059,1,TheIndividualist,Individualist anarchism,/* Anarcho-capitalism */
2006-07-26T23:01:09+00:00,66053059,66007921,1,TheIndividualist,Individualist anarchism,/* Anarcho-capitalism */ this is not a criticism of anarcho-capitalism but of Rothbardianism anarcho-capitalism
2006-07-26T22:42:44+00:00,66050178,66049752,1,TheIndividualist,Talk:Collectivism (disambiguation),"/* Pejorative, perhaps? */"
2006-07-26T22:40:12+00:00,66049752,66048572,1,TheIndividualist,Talk:Collectivism (disambiguation),"/* Pejorative, perhaps? */"
2006-07-26T22:32:38+00:00,66048572,66048486,1,TheIndividualist,Talk:Collectivism (disambiguation),"/* Pejorative, perhaps? */"
2006-07-26T22:31:59+00:00,66048486,66048142,1,TheIndividualist,Talk:Collectivism (disambiguation),"/* Pejorative, perhaps? */"
2006-07-26T22:29:42+00:00,66048142,66047645,1,TheIndividualist,Talk:Collectivism (disambiguation),"/* Pejorative, perhaps? */"
2006-07-26T22:26:26+00:00,66047645,66047057,1,TheIndividualist,Talk:Collectivism (disambiguation),"/* Pejorative, perhaps? */"
2006-07-26T22:22:50+00:00,66047057,66008747,1,TheIndividualist,Talk:Collectivism (disambiguation),"/* Pejorative, perhaps? */"
2006-07-26T22:16:07+00:00,66045965,65964036,1,TheIndividualist,Collectivism (disambiguation),it is human interdependence ON SOME COLLECTIVE GROUP. And please don't remove the social system definition. I am reverting back to TheIndividualist
2006-07-26T04:53:08+00:00,65901651,65783541,1,TheIndividualist,Individualism,
2006-07-26T04:04:33+00:00,65895528,65892786,1,TheIndividualist,Talk:Anarchism,/* Thomas Jefferson and OR */
2006-07-26T03:22:52+00:00,65889774,65888543,1,TheIndividualist,Individualist anarchism,revert to individualist
2006-07-26T02:37:28+00:00,65883454,63931031,1,TheIndividualist,Mutualism (economic theory),form of individualist anarchism
2006-07-26T02:34:22+00:00,65883014,65882882,1,TheIndividualist,Individualist anarchism,/* Anarcho-capitalism */
2006-07-26T02:33:28+00:00,65882882,65882055,1,TheIndividualist,Individualist anarchism,/* Anarcho-capitalism */
2006-07-26T02:27:57+00:00,65882055,65881924,1,TheIndividualist,Individualist anarchism,/* Anarcho-capitalism */
2006-07-26T02:27:02+00:00,65881924,65881659,1,TheIndividualist,Individualist anarchism,/* Anarcho-capitalism */
2006-07-26T02:25:11+00:00,65881659,65804469,1,TheIndividualist,Individualist anarchism,/* Anarcho-capitalism */ Rothbard disagreed with the labor theory
2006-07-26T02:17:51+00:00,65880693,65880548,1,TheIndividualist,User talk:Intangible,/* Rocker */
2006-07-26T02:16:54+00:00,65880548,65396692,1,TheIndividualist,User talk:Intangible,
2006-07-26T02:14:11+00:00,65880149,65878945,1,TheIndividualist,Anarcho-capitalism,
2006-07-26T02:05:38+00:00,65878945,65878105,1,TheIndividualist,Anarcho-capitalism,anarchocommunists opposed to private property
2006-07-25T18:41:14+00:00,65804469,65764022,1,TheIndividualist,Individualist anarchism,/* Anarcho-capitalism */ this only applies to Rothbard and not anarcho-capitalism in general. some anarcho-capitalists also disagree with Rothbard on this.
2006-07-25T18:36:35+00:00,65803630,65798478,1,TheIndividualist,Anarcho-capitalism,
2006-07-25T18:31:25+00:00,65802773,64970029,1,TheIndividualist,Property,private property can be group of individuals
2006-07-25T18:08:32+00:00,65798478,65797963,1,TheIndividualist,Anarcho-capitalism,
2006-07-25T18:05:53+00:00,65797963,65797268,1,TheIndividualist,Anarcho-capitalism,state is a thief
2006-07-25T18:02:00+00:00,65797268,65796756,1,TheIndividualist,Anarcho-capitalism,
2006-07-25T17:59:27+00:00,65796756,65796600,1,TheIndividualist,Anarcho-capitalism,
2006-07-25T17:58:37+00:00,65796600,65796223,1,TheIndividualist,Anarcho-capitalism,
2006-07-25T17:56:36+00:00,65796223,65795897,1,TheIndividualist,Anarcho-capitalism,
2006-07-25T17:54:38+00:00,65795897,65795550,1,TheIndividualist,Anarcho-capitalism,
2006-07-25T17:52:33+00:00,65795550,65795252,1,TheIndividualist,Anarcho-capitalism,
2006-07-25T17:50:52+00:00,65795252,65794833,1,TheIndividualist,Anarcho-capitalism,
2006-07-25T17:48:28+00:00,65794833,65794472,1,TheIndividualist,Anarcho-capitalism,profit not exploitation
2006-07-25T17:46:39+00:00,65794472,65793956,1,TheIndividualist,Anarcho-capitalism,only to replace the non-criminal functions of the state
2006-07-25T17:43:33+00:00,65793956,65793713,1,TheIndividualist,Anarcho-capitalism,
2006-07-25T17:42:14+00:00,65793713,65793388,1,TheIndividualist,Anarcho-capitalism,
2006-07-25T17:40:19+00:00,65793388,65791060,1,TheIndividualist,Anarcho-capitalism,put the anarchism template at top.
2006-07-25T17:25:59+00:00,65791060,65790552,1,TheIndividualist,Anarcho-capitalism,
2006-07-25T17:22:44+00:00,65790552,65790240,1,TheIndividualist,Anarcho-capitalism,defense of liberty
2006-07-25T17:20:35+00:00,65790240,65790132,1,TheIndividualist,Anarcho-capitalism,
2006-07-25T17:19:57+00:00,65790132,65789704,1,TheIndividualist,Anarcho-capitalism,original appropriation is another method of acquiring property
2006-07-25T17:10:45+00:00,65788652,65787131,1,TheIndividualist,Anarchism in the United States,
2006-07-25T17:01:01+00:00,65787131,65769072,1,TheIndividualist,Anarchism in the United States,/* Controversies */
2006-07-25T16:51:52+00:00,65785720,65748382,1,TheIndividualist,Anarcho-capitalism,a right to justly acquired property as Rothbard indicates. private property is not supported unless it is justly acquired.
2006-07-25T16:38:38+00:00,65783541,65779864,1,TheIndividualist,Individualism,
2006-07-25T16:15:48+00:00,65779864,65779684,1,TheIndividualist,Individualism,
2006-07-25T16:14:36+00:00,65779684,65779371,1,TheIndividualist,Individualism,
2006-07-25T16:12:35+00:00,65779371,64919305,1,TheIndividualist,Individualism,personal independence does not imply lack of social interaction
2006-07-25T15:11:11+00:00,65769072,65767685,1,TheIndividualist,Anarchism in the United States,/* Controversies */
2006-07-25T15:02:31+00:00,65767685,65767477,1,TheIndividualist,Anarchism in the United States,/* Controversies */
2006-07-25T15:01:20+00:00,65767477,65766462,1,TheIndividualist,Anarchism in the United States,/* Controversies */
2006-07-25T14:54:56+00:00,65766462,65765254,1,TheIndividualist,Anarchism in the United States,/* Controversies */
2006-07-25T14:47:44+00:00,65765254,65765039,1,TheIndividualist,Anarchism in the United States,/* Controversies */
2006-07-25T14:46:30+00:00,65765039,65764893,1,TheIndividualist,Anarchism in the United States,/* Controversies */
2006-07-25T14:45:40+00:00,65764893,65764719,1,TheIndividualist,Anarchism in the United States,/* Controversies */
2006-07-25T14:44:29+00:00,65764719,65763871,1,TheIndividualist,Anarchism in the United States,/* Controversies */ Rothbard criticism of Tucker
2006-07-25T14:39:08+00:00,65763871,65763298,1,TheIndividualist,Anarchism in the United States,/* Controversies */
2006-07-25T14:35:52+00:00,65763298,65732506,1,TheIndividualist,Anarchism in the United States,"/* Controversies */ tucker did not advocate a ""restricted form of private property"". Also the individualists believe in individual control of product of labor."
2006-07-25T04:26:18+00:00,65691545,65691407,1,TheIndividualist,Anarcho-capitalism,
2006-07-25T04:25:20+00:00,65691407,65691230,1,TheIndividualist,Anarcho-capitalism,
2006-07-25T04:24:02+00:00,65691230,65668726,1,TheIndividualist,Anarcho-capitalism,Rothbardianism is just one form of anarcho-capitalism
2006-07-25T04:17:29+00:00,65690316,65323036,1,TheIndividualist,Collectivism (disambiguation),removed unsourced statements
2006-07-25T03:59:19+00:00,65688055,65687364,1,TheIndividualist,Anarchism in the United States,/* Controversies */ communists do not advocate that individuals should receive the product of their labor. took that out. it is exploitation that that agree upon instead.
2006-07-25T03:54:06+00:00,65687364,65685495,1,TheIndividualist,Anarchism in the United States,/* Controversies */ put individualist criticism of anarcho-communism back in with a source and noted more contrast with anarcho-communism
2006-07-25T01:26:06+00:00,65666600,64170883,1,TheIndividualist,Talk:Individualist anarchism,
2006-07-24T18:18:39+00:00,65595906,65595646,1,TheIndividualist,Anarcho-capitalism,/* Private property */
2006-07-24T18:17:04+00:00,65595646,65595423,1,TheIndividualist,Anarcho-capitalism,/* Private property */
2006-07-24T18:15:46+00:00,65595423,65591512,1,TheIndividualist,Anarcho-capitalism,/* Private property */ trade or gift
2006-07-24T17:53:46+00:00,65591512,65591247,1,TheIndividualist,Anarcho-capitalism,/* Private property */
2006-07-24T17:52:08+00:00,65591247,65590423,1,TheIndividualist,Anarcho-capitalism,/* Private property */ slaves own the land they work on
2006-07-24T17:47:49+00:00,65590423,65590228,1,TheIndividualist,Anarcho-capitalism,/* Private property */
2006-07-24T17:46:40+00:00,65590228,65589143,1,TheIndividualist,Anarcho-capitalism,/* Private property */ constrasting with anarcho-communism
2006-07-24T17:40:19+00:00,65589143,65584808,1,TheIndividualist,Anarcho-capitalism,"/* Original appropriation */ i changed the title to private property, since it is not simply about original appropriation"
2006-07-24T17:15:51+00:00,65585051,64520174,1,TheIndividualist,Karl Hess,anarcho-capitalist to be precise
2006-07-24T17:14:18+00:00,65584808,65582066,1,TheIndividualist,Anarcho-capitalism,/* Original appropriation */
2006-07-24T16:59:21+00:00,65582066,65581434,1,TheIndividualist,Anarcho-capitalism,/* Original appropriation */
2006-07-24T16:52:48+00:00,65580839,65580538,1,TheIndividualist,Anarcho-capitalism,/* Original appropriation */
2006-07-24T16:51:14+00:00,65580538,65551016,1,TheIndividualist,Anarcho-capitalism,/* Original appropriation */ Rothbard in support of expropriation
2006-07-24T15:44:05+00:00,65568954,65567488,1,TheIndividualist,Anarchism in the United States,/* Controversies */
2006-07-24T15:35:09+00:00,65567488,65567081,1,TheIndividualist,Anarchism in the United States,/* Controversies */
2006-07-24T15:32:37+00:00,65567081,65566445,1,TheIndividualist,Anarchism in the United States,/* Controversies */
2006-07-24T15:28:41+00:00,65566445,65563689,1,TheIndividualist,Anarchism in the United States,/* Controversies */ individualist response
2006-07-24T15:13:03+00:00,65563689,65563622,1,TheIndividualist,Anarchism in the United States,/* Controversies */
2006-07-24T15:12:26+00:00,65563622,65563103,1,TheIndividualist,Anarchism in the United States,/* Controversies */ communists do not agree with Tucker
2006-07-24T15:08:21+00:00,65563103,65561868,1,TheIndividualist,Anarchism in the United States,/* Controversies */ the source does not say this. I've placed a tag here. Anarcho-communists think the fruits of labor should be collectivized...not individually owned.
2006-07-24T14:37:09+00:00,65558345,65500690,1,TheIndividualist,Anarchism in the United States,/* Controversies */ anarcho-communists are against private ownership. Besides the source does not say that communists think this. The source does not match.
2006-07-23T19:53:26+00:00,65423240,65418574,1,TheIndividualist,Talk:Anarchism,/* Proudhon */
2006-07-23T19:13:20+00:00,65416825,65415558,1,TheIndividualist,Anarchism,"communists are opposed to trade: ""money, wages, and trade would be abolished."""
2006-07-23T19:11:18+00:00,65416505,65389329,1,TheIndividualist,Anarchism in the United States,/* Controversies */ communists do not say this
2006-07-23T19:00:37+00:00,65414875,65407814,1,TheIndividualist,Anarchism,this is not true for communists because they oppose voluntary exchange
2006-07-23T18:42:34+00:00,65412229,65409567,1,TheIndividualist,Talk:Anarchism,/* Thomas Jefferson */ corrected the link to True Civilization
2006-07-23T18:24:21+00:00,65409567,65396468,1,TheIndividualist,Talk:Anarchism,/* Thomas Jefferson */
2006-07-23T04:32:35+00:00,65323036,65322933,1,TheIndividualist,Collectivism (disambiguation),
2006-07-23T04:31:45+00:00,65322933,65322816,1,TheIndividualist,Collectivism (disambiguation),
2006-07-23T04:30:48+00:00,65322816,65322692,1,TheIndividualist,Collectivism (disambiguation),
2006-07-23T04:29:38+00:00,65322692,65322625,1,TheIndividualist,Collectivism (disambiguation),
2006-07-23T04:29:05+00:00,65322625,65322082,1,TheIndividualist,Collectivism (disambiguation),contrast with individualism
2006-07-23T04:24:19+00:00,65322082,65321715,1,TheIndividualist,Collectivism (disambiguation),
2006-07-23T04:21:24+00:00,65321715,65317417,1,TheIndividualist,Collectivism (disambiguation),put a quote from the definition because it didn't match the source
2006-07-23T03:21:39+00:00,65314762,65314026,1,TheIndividualist,Collectivism (disambiguation),i request source for this. if one is not provided then it should be removed.
2006-07-23T02:35:03+00:00,65308896,65305677,1,TheIndividualist,Collectivism (disambiguation),removing some strange words about being a hermit and what not that are not sourced
2006-07-23T02:08:59+00:00,65305677,65305580,1,TheIndividualist,Collectivism (disambiguation),/* Politics */
2006-07-23T02:08:08+00:00,65305580,65305545,1,TheIndividualist,Collectivism (disambiguation),/* Politics */
2006-07-23T02:07:49+00:00,65305545,65304810,1,TheIndividualist,Collectivism (disambiguation),/* Politics */ contrasted individualism to rousseau
2006-07-23T02:04:22+00:00,65305086,65304889,1,TheIndividualist,Talk:Collectivism (disambiguation),"/* Pejorative, perhaps? */"
2006-07-23T02:01:47+00:00,65304810,65304693,1,TheIndividualist,Collectivism (disambiguation),
2006-07-23T02:00:49+00:00,65304693,65304601,1,TheIndividualist,Collectivism (disambiguation),
2006-07-23T02:00:03+00:00,65304601,65304569,1,TheIndividualist,Collectivism (disambiguation),
2006-07-23T01:59:48+00:00,65304569,65303919,1,TheIndividualist,Collectivism (disambiguation),provided a quote from the source
2006-07-23T01:54:15+00:00,65303919,65303375,1,TheIndividualist,Collectivism (disambiguation),"it is not ""pejorative"""
2006-07-23T01:23:22+00:00,65300335,65125162,1,TheIndividualist,Collectivism (disambiguation),reverting back to visionthing. britannica is not using in a pejorative sense. that is what collectivism is. collectivists think it is good for the individual to be subordinate to the collective.
2006-07-21T20:51:55+00:00,65097114,65096923,1,TheIndividualist,Talk:Anarchism,/* POV tag */
2006-07-21T20:50:42+00:00,65096923,65096084,1,TheIndividualist,Talk:Anarchism,/* POV tag */
2006-07-21T20:45:31+00:00,65096084,65095996,1,TheIndividualist,Talk:Anarchism,/* POV tag */
2006-07-21T20:44:50+00:00,65095996,65094238,1,TheIndividualist,Talk:Anarchism,/* POV tag */
2006-07-21T20:34:00+00:00,65094238,65094054,1,TheIndividualist,Talk:Anarchism,/* POV tag */
2006-07-21T20:32:51+00:00,65094054,65093920,1,TheIndividualist,Talk:Anarchism,/* POV tag */
2006-07-21T20:31:54+00:00,65093920,65090763,1,TheIndividualist,Talk:Anarchism,/* POV tag */
2006-07-21T19:27:27+00:00,65083279,65079585,1,TheIndividualist,Talk:Anarchism,/* Capitalism as authoritarian */
2006-07-21T19:04:19+00:00,65079585,65078943,1,TheIndividualist,Talk:Anarchism,/* Intro */
2006-07-21T18:52:14+00:00,65077639,65076599,1,TheIndividualist,Talk:Anarchism,/* individualist anarchism and anarcho-capitalism / monopolistic capitalism */
2006-07-21T18:45:43+00:00,65076599,65069615,1,TheIndividualist,Talk:Anarchism,/* individualist anarchism and anarcho-capitalism / monopolistic capitalism */
2006-07-21T17:57:29+00:00,65068572,65067731,1,TheIndividualist,Talk:Anarchism in the United States,/* Individualism */
2006-07-21T17:52:55+00:00,65067731,65067618,1,TheIndividualist,Talk:Anarchism in the United States,/* Individualism */
2006-07-21T17:52:19+00:00,65067618,63415471,1,TheIndividualist,Talk:Anarchism in the United States,
2009-09-12T06:42:55+00:00,313326644,0,1,Tottalo,Unregulated capitalism,[[WP:AES|←]]Redirected page to [[Economic liberalism]]
2009-09-12T06:39:51+00:00,313326346,0,1,Tottalo,Unfettered capitalism,[[WP:AES|←]]Redirected page to [[Economic liberalism]]
2009-09-12T06:39:04+00:00,313326280,0,1,Tottalo,Unrestrained capitalism,[[WP:AES|←]]Redirected page to [[Economic liberalism]]
2009-09-12T06:38:04+00:00,313326177,306468600,1,Tottalo,Pure capitalism,laissezfaire includes both political end economic freedom ...economic liberalism is more precise
2007-06-27T05:22:28+00:00,140891894,140891604,0,Tamfang,A Vindication of Natural Society,/* Content */ punc
2009-06-03T20:07:33+00:00,294237924,293630652,0,Nihilo 01,A Vindication of Natural Society,
2009-09-12T09:59:09+00:00,313344254,294237924,0,Coningsby,A Vindication of Natural Society,The view that it wasn't a satire is a minority view against the scholar consensus.
2006-08-26T11:23:11+00:00,71985362,68185121,0,L Trezise,A Vindication of Natural Society,
2007-01-07T14:11:23+00:00,99093850,99092352,0,SmackBot,A Vindication of Natural Society,Date/fix the maintenance tags  using [[Project:AWB|AWB]]
2008-11-15T20:00:20+00:00,252011977,252011698,0,Skomorokh,A Vindication of Natural Society,/* See also */ wikify
2006-11-20T20:44:16+00:00,89079978,89079837,0,WitterD,A Vindication of Natural Society,
2007-11-18T20:43:54+00:00,172344870,164442987,0,RJFJR,A Vindication of Natural Society,remove cleanup tag: looks OK IMHO
2007-04-19T18:19:09+00:00,124146444,122471071,0,Gaius Cornelius,A Vindication of Natural Society,Clean up [[-able and -ible]] suffixes  using [[Project:AWB|AWB]]
2008-03-02T19:28:27+00:00,195378428,172344870,0,Munci,A Vindication of Natural Society,/* Satire? */ typo
2009-01-04T23:41:28+00:00,261986557,261982319,0,Zazaban,Anarchism,[[WP:UNDO|Undid]] revision 261982319 by [[Special:Contributions/Ohnoitsjamie|Ohnoitsjamie]] ([[User talk:Ohnoitsjamie|talk]]) Make that 3-2
2009-08-31T10:40:04+00:00,311056406,310297209,0,41.196.83.10,Anarchism,
2007-04-16T11:12:44+00:00,123218813,123218569,0,Etcetc,Anarchism,/* Anarcho-capitalism */
2008-11-20T15:14:08+00:00,252992393,252980451,0,Billinghurst,Anarchism,Disambiguate [[National Portrait Gallery]] to [[National Portrait Gallery (London)]] using [[:en:Wikipedia:Tools/Navigation_popups|popups]]
2009-01-22T07:15:32+00:00,265657952,265657535,0,Skomorokh,Anarchism,/* Further reading */ oclc/isbn
2010-01-15T11:54:14+00:00,337981836,337661787,0,81.240.50.196,Anarchism,/* External links */
2007-03-14T09:54:55+00:00,115019187,115018708,0,Ottershrew,Anarchism,/* Pre-Nineteenth Century */
2009-06-10T17:07:18+00:00,295610468,295485626,0,Contributor777,Anarchism,/* External links */
2007-11-13T14:32:42+00:00,171203933,171196940,0,Knight of BAAWA,Anarchism,/* The First International */ typo correction
2007-02-19T03:53:34+00:00,109224383,108734700,0,SeanLegassick,Anarchism,/* Anarchist communism */ removed para with dead reference and [[WP:WEASEL|weaselly]] language
2009-10-05T18:53:06+00:00,318099496,318089897,0,Lapsed Pacifist,Anarchism,/* Individualist anarchism */
2007-01-17T16:57:58+00:00,101359054,101255484,0,Steve802,Anarchism,/* Pre-Nineteenth Century */ linkification
2009-07-28T20:03:52+00:00,304739559,304682872,0,84.63.89.149,Anarchism,en.wiki about Freetekno
2007-02-08T05:43:07+00:00,106508273,106440798,0,74.72.88.98,Anarchism,/* Pre-Nineteenth Century */
2009-10-30T02:19:14+00:00,322851921,322730813,0,24.27.201.134,Anarchism,/* Internal issues and debates */ changed a complex relationship to complex relationships
2007-03-06T03:49:58+00:00,112983457,112983327,0,24.206.75.217,Anarchism,/* Anarcho-capitalism */
2009-04-06T01:37:53+00:00,282009422,282009395,0,J.delanoy,Anarchism,Reverted edits by [[Special:Contributions/192.150.115.150|192.150.115.150]] to last revision by ThompsonFest ([[WP:HG|HG]])
2009-04-12T14:33:39+00:00,283366449,283366384,0,Erik9,Anarchism,Reverted edits by [[Special:Contributions/74.179.172.215|74.179.172.215]] ([[User talk:74.179.172.215|talk]]) to last version by Introman
2007-02-05T16:13:19+00:00,105818213,105817957,0,149.199.62.254,Anarchism,/* Pre-Nineteenth Century */
2007-09-15T02:45:33+00:00,157979304,157961584,0,Knight of BAAWA,Anarchism,[[WP:UNDO|Undid]] revision 157961584 by [[Special:Contributions/203.173.144.247|203.173.144.247]] ([[User talk:203.173.144.247|talk]]) rv 2 irrelevant and POV edits
2006-06-26T21:17:06+00:00,60725373,60718962,0,FrancisTyers,Anarchism,ref
2006-10-04T17:41:49+00:00,79486401,79486004,0,Vision Thing,Anarchism,"/* Authority */ rm Chomsky qoute, it has nothing to do with the issue of authority, it is critique of anarcho-capitalism"
2007-11-20T08:24:28+00:00,172666070,172665816,0,GlobeGores,Anarchism,"moved [[IT'S ANARCHY, BABY!!! YEAH!!! WEEEEEEEEEEEEEEEEEEEEEEEEEEEEEEEEEEEEEEEEE!!! GRAWP DESTROY WIKI INFRASTRUCTURE. GRAWP NOT KNOW WHAT THAT WORD MEANS. GRAWP CONFUSED.]] to [[Anarchism]] over redirect: revert"
2008-02-17T01:50:57+00:00,191974536,191974332,0,Skomorokh,Anarchism,/* Anarchism without adjectives */ fmt
2008-11-22T05:13:57+00:00,253338078,253337943,0,Andy Marchbanks,Anarchism,Moved a reference.
2007-04-28T10:05:29+00:00,126597561,126594649,0,Black Butterfly,Anarchism,[[WP:UNDO|Undid]] revision 126594649 by [[Special:Contributions/Asa Winstanley|Asa Winstanley]] ([[User talk:Asa Winstanley|talk]])
2008-03-24T21:08:47+00:00,200633745,200587264,0,Zbxgscqf,Anarchism,/* Recently-developed schools of thought (1960's onward) */ punctuation
2009-02-28T11:09:27+00:00,273852681,273576618,0,GhalyBot,Anarchism,robot  Adding: [[arz:اناركيه]]
2008-02-02T03:06:40+00:00,188525320,188524478,0,Zazaban,Anarchism,[[WP:UNDO|Undid]] revision 188524478 by [[Special:Contributions/220.86.141.204|220.86.141.204]] ([[User talk:220.86.141.204|talk]])
2006-07-02T17:41:37+00:00,61712927,61560577,0,Dalta~enwiki,Anarchism,/* Anarchism and organized labor */
2008-05-24T20:56:57+00:00,214694645,214654875,0,Mark Ironie,Anarchism,clean up  using [[Project:AutoWikiBrowser|AWB]]
2009-05-06T17:31:18+00:00,288304634,288290532,0,92.56.184.142,Anarchism,/* Fight against fascism */
2008-10-28T08:29:16+00:00,248155399,248153814,0,Skomorokh,Anarchism,rv; [[WP:V|uncited]] and of questionable relevance
2009-02-25T01:03:29+00:00,273089589,273086808,0,Jadabocho,Anarchism,[[WP:UNDO|Undid]] revision 273086808 by [[Special:Contributions/Zazaban|Zazaban]] ([[User talk:Zazaban|talk]]) better to revert to what's sourced than to what's not
2010-01-29T19:57:27+00:00,340773357,340772295,0,190.155.134.5,Anarchism,/* External links */  This was already here
2009-03-14T22:03:05+00:00,277266805,276922869,0,83.71.75.29,Anarchism,/* Anarcho-syndicalism */
2008-01-06T19:55:21+00:00,182584500,182555159,0,Knight of BAAWA,Anarchism,/* External links */  removing self-promotion from anarchismtoday and infoshop descriptions - hopefully for a better balance
2010-01-27T05:50:20+00:00,340286360,340012792,0,Eduen,Anarchism,/* Free love */
2008-06-07T18:59:22+00:00,217798900,217798615,0,Blocknew,Anarchism,
2007-12-16T05:39:32+00:00,178236705,178193705,0,Skomorokh,Anarchism,"/* Further reading */ update graham bibliography, rm commercial link"
2007-01-17T21:10:01+00:00,101411422,101411155,0,Zoe,Anarchism,Reverted edits by [[Special:Contributions/64.30.66.240|64.30.66.240]] ([[User talk:64.30.66.240|talk]]) to last version by Steve802
2008-03-20T23:28:12+00:00,199707053,199679381,0,Lemmey,Anarchism,(named dupe refs)
2008-12-20T06:53:05+00:00,259119380,259074916,0,WhatamIdoing,Anarchism,/* Citations */ These aren't all citations.
2007-11-01T08:25:23+00:00,168471340,168454858,0,Grenavitar,Anarchism,/* External links */ adding the Anarchism Bookshelf of many good primary sources...
2007-01-29T06:04:25+00:00,104024223,104024110,0,Ginsengbomb,Anarchism,Reverted 1 edit by [[Special:Contributions/69.3.144.183|69.3.144.183]] ([[User talk:69.3.144.183|talk]]) to last revision (104023998) by Ginsengbomb using [[WP:VPRF|VP]]
2007-06-26T02:45:26+00:00,140658254,140647208,0,Jacob Haller,Anarchism,"trim text, correct spelling. next sentence still somewhat confusing."
2006-07-23T09:07:20+00:00,65350445,65349125,0,VoluntarySlave,Anarchism,Moved Jefferson to Origins of Anarchism
2006-08-21T19:05:30+00:00,71013820,71012999,0,DTC,Anarchism,/* Anarcho-capitalism */
2008-05-26T20:44:55+00:00,215126027,215116361,0,Knight of BAAWA,Anarchism,/* External links */ remove link per WP:EL
2008-01-27T04:59:29+00:00,187185266,187146869,0,Steambadger,Anarchism,"Changed 'fermenting' to 'fomenting', assuming that's what was intended. ~~~~"
2007-05-10T23:57:54+00:00,129971510,129971006,0,GAPlauche,Anarchism,[[WP:UNDO|Undid]] revision 129971006 by [[Special:Contributions/70.130.237.138|70.130.237.138]] ([[User talk:70.130.237.138|talk]]) I see no reason for deletion.
2008-01-23T01:13:33+00:00,186248056,186066630,0,Cast,Anarchism,link correction
2007-11-25T10:02:58+00:00,173656643,173656345,0,Murderbike,Anarchism,"/* Green anarchism */ one more cite for what i thought wasn't very disputable, alas"
2008-06-22T18:03:54+00:00,221018404,221001570,0,Skomorokh,Anarchism,fmt
2007-10-11T05:08:43+00:00,163741425,163731490,0,Jemmy Button,Anarchism,/* Anarchist communism */ lose dubious situationism claim; minor rephrasing
2008-08-18T21:02:44+00:00,232765407,232763014,0,J.delanoy,Anarchism,Reverted edits by [[Special:Contributions/75.15.220.157|75.15.220.157]] to last version by Max rspct ([[WP:HG|HG]])
2009-07-03T12:16:22+00:00,300039239,299788856,0,Peemil,Anarchism,Reference is fine.
2008-05-16T19:06:31+00:00,212890800,212865871,0,Stephen B Streater,Anarchism,Was there a reason for removing this picture?
2007-11-04T10:33:29+00:00,169128882,169128858,0,Gurch,Anarchism,Revert previous revision by [[Special:Contributions/76.240.71.21|76.240.71.21]]
2007-10-30T15:53:10+00:00,168097996,168063145,0,I already forgot,Anarchism,brit @ am english nonsense
2009-07-29T18:57:43+00:00,304930903,304926177,0,Nihilo 01,Anarchism,/* William Godwin */
2008-03-07T14:39:21+00:00,196537359,196537350,0,ClueBot,Anarchism,"Reverting possible vandalism by [[Special:Contributions/Dragon Master 666|Dragon Master 666]] to version by Skomorokh. False positive? [[User:ClueBot/FalsePositives|report it]]. Thanks, [[User:ClueBot]]. (263961) (Bot)"
2007-03-16T10:48:54+00:00,115528324,115410063,0,SmackBot,Anarchism,Date/fix maintenance tags
2008-04-30T05:33:06+00:00,209173337,209173209,0,Skomorokh,Anarchism,/* Anarchism and organized labor */ reword
2009-07-20T21:41:28+00:00,303211482,302992720,0,Numbo3-bot,Anarchism,robot Adding: [[war:Anarkismo]]
2006-08-21T15:38:25+00:00,70973807,70970562,0,Twobitsprite,Anarchism,/* Communism */ duplicate header
2009-03-06T22:26:48+00:00,275488389,275458841,0,Jadabocho,Anarchism,wording
2009-10-11T11:31:20+00:00,319210836,319210721,0,Aqwis,Anarchism,protected 1 day
2006-11-09T16:58:31+00:00,86744155,86743945,0,Anarcho-capitalism,Anarchism,/* Capitalism */
2008-11-13T20:01:57+00:00,251617540,251617446,0,NawlinWiki,Anarchism,Reverted edits by [[Special:Contributions/68.90.80.46|68.90.80.46]] ([[User talk:68.90.80.46|talk]]) to last version by Thedjatclubrock
2008-08-19T11:22:25+00:00,232882763,232874709,0,Jim Yar,Anarchism,
2010-02-09T21:14:06+00:00,343010942,342852844,0,Zazaban,Anarchism,/* Internal issues and debates */ More widespread controversy.
2009-08-21T02:10:49+00:00,309176317,309142700,0,Zazaban,Anarchism,"Last good version. Article does not exist, and anarchists don't universally believe in morality."
2006-12-27T09:02:23+00:00,96712282,96585055,0,Murderbike,Anarchism,/* Anarchism without adjectives */ fixed link
2009-06-21T03:03:32+00:00,297658633,297305333,0,Nihilo 01,Anarchism,/* Post-classical schools of thought */ ref.
2007-09-06T02:34:51+00:00,155971801,155968028,0,Raul654,Anarchism,moved [[HAGGER?????]] to [[Anarchism]]
2008-06-30T19:26:29+00:00,222714539,222711885,0,Singwaste,Anarchism,/* Libertarian socialism */
2008-05-29T11:13:52+00:00,215712312,215683105,0,Unforgiven666,Anarchism,National anarchist websites should be in [[National anarchism]]  [[WP:UNDO|Undid]] revision 215683105 by [[Special:Contributions/76.191.151.69|76.191.151.69]] ([[User talk:76.191.151.69|talk]])
2008-06-07T21:58:20+00:00,217831174,217798900,0,Knight of BAAWA,Anarchism,/* Individualist anarchism */ reverting possibly well-intentioned but not-well-thought-out edit.
2006-10-18T23:01:17+00:00,82307274,82306992,0,Donnachadelong,Anarchism,/* The First International */
2009-01-18T10:45:34+00:00,264845778,264609740,0,158.143.189.35,Anarchism,/* Anarcho-capitalism */
2007-07-18T11:13:15+00:00,145416226,145357774,0,MTN~enwiki,Anarchism,
2008-11-06T23:22:45+00:00,250126700,250126530,0,Piano non troppo,Anarchism,Reverted edits by [[Special:Contributions/24.3.218.168|24.3.218.168]] ([[User talk:24.3.218.168|talk]]) using [[User:MichaelBillington/MWT|MWT]]
2007-04-06T19:22:34+00:00,120801609,120683370,0,Etcetc,Anarchism,Removing Sartwell/Presley quote that directly contradicts Voltairine's pov on capitalism see aw/oa talk page
2007-02-21T00:27:45+00:00,109691020,109690368,0,Trevor W. McKeown,Anarchism,/* The First International */
2009-01-06T01:28:03+00:00,262213754,262213105,0,YellowMonkey,Anarchism,Reverted edits by [[Special:Contributions/92.2.196.112|92.2.196.112]] ([[User talk:92.2.196.112|talk]]) to last version by Zazaban
2009-12-28T16:42:49+00:00,334569525,331874189,0,80.235.139.142,Anarchism and anarcho-capitalism,"/* Dispute over legitimatacy */  changed to ""Dispute over legitimacy"""
2008-10-09T20:34:02+00:00,244214517,244214255,0,Chrisahn,Anarchism and anarcho-capitalism,/* Related philosophies */
2008-03-07T01:14:14+00:00,196427888,196417015,0,Skomorokh,Anarchism,Reverted edits by [[Special:Contributions/75.90.193.207|75.90.193.207]] ([[User talk:75.90.193.207|talk]]) to last version by Compwhizii
2008-07-23T19:06:56+00:00,227469001,224495952,0,Skomorokh,Anarchism and anarcho-capitalism,"/* Dispute over whether anarcho-capitalism is a legitimate form of anarchism */ copyedit, add image"
2007-04-06T19:40:00+00:00,120805516,116182411,0,Lordmetroid,Anarchism and anarcho-capitalism,converting links to references
2009-02-15T04:21:45+00:00,270814048,270813809,0,Tamfang,Anarchism and anarcho-capitalism,/* Property */ 'tended to reject'? they rejected unless the dice showed snake-eyes?
2008-08-16T18:12:11+00:00,232349321,228645056,0,Rjwilmsi,Anarchism and anarcho-capitalism,[[User:Rjwilmsi#Other_fixes|gen fixes]] and/or [[User:Rjwilmsi#My_correction_of_citation_templates|cite template fixes]]  using [[Project:AutoWikiBrowser|AWB]]
2007-07-02T14:56:51+00:00,142019111,141697314,0,78.3.93.137,Anarchism and anarcho-capitalism,Repair vandalism
2008-11-30T12:34:17+00:00,254984483,254078744,0,Lightmouse,Anarchism and anarcho-capitalism,Units/dates/other  using [[Project:AutoWikiBrowser|AWB]]
2007-04-10T02:41:02+00:00,121588204,121408397,0,Anarcho-capitalism,Anarchism and anarcho-capitalism,revert Infinity's deletion of sources
2007-03-19T04:34:00+00:00,116182411,115982170,0,Zachorious,Anarchism and anarcho-capitalism,/* Similar philosophies */
2007-08-11T21:40:08+00:00,150650159,149423937,0,Operation Spooner,Anarchism and anarcho-capitalism,"What is the cut-off year for ""traditional?"""
2009-09-19T20:52:06+00:00,314975946,314550626,0,UnderHigh,Anarchism and anarcho-capitalism,/* Markets */
2008-12-14T08:50:53+00:00,257872853,254984483,0,Citation bot,Anarchism and anarcho-capitalism,Updating page numbers after [[Template_talk:Cite_book#Ready_to_go|recent improvement]] to [[Template:Cite book]]. Added: page.
2007-01-24T01:45:29+00:00,102809197,102806204,0,192.188.55.3,Anarchism and anarcho-capitalism,/* Integrating Austrian economics into individualist anarchism */
2006-07-30T21:19:13+00:00,66742011,66741845,0,AaronS,Anarchism in the United States,/* Murray Rothbard */
2008-10-21T17:23:52+00:00,246758622,245524766,0,209.217.203.149,Anarchism in the United States,/* External links */
2007-04-21T06:37:54+00:00,124553174,123874376,0,OrphanBot,Anarchism in the United States,Removing [[:Image:BenjaminTuckerYoung.jpg|image]] with no source information.  Such images that are older than seven days may be deleted at any time.
2007-05-20T00:57:51+00:00,132120270,132002237,0,Etcetc,Anarchism in the United States,"All the sources are published and properly cited, they are not unreliable.  Furthermore, there is no OR, the sources match the text.  Unless you think I personally published it all?"
2008-08-24T16:15:24+00:00,233950713,233105100,0,EVCM,Anarchism in the United States,/* See also */ [[Anarchy in the United States]]
2006-09-06T00:37:31+00:00,74048099,73980671,0,Good Intentions,Anarchism in the United States,"/* Emma Goldman */ expansion, cleanup"
2008-10-15T21:06:38+00:00,245524766,245520173,0,Skomorokh,Anarchism in the United States,rv; no source
2009-05-05T19:51:05+00:00,288116834,286886850,0,69.127.125.230,Anarchism in the United States,/* External links */
2008-11-01T21:46:09+00:00,249068804,246758622,0,76.170.116.176,Anarchism in the United States,"/* Contemporary anarchists */ added myself, Dana Ward"
2007-07-03T04:36:26+00:00,142172010,142171449,0,PhilLiberty,Anarchism in the United States,/* Murray Rothbard */ NAP
2009-01-18T06:48:08+00:00,264823246,257891714,0,69.209.132.209,Anarchism in the United States,/* Contemporary anarchists */ that's true of many non-anarchists; why single out Churchill?
2008-07-27T17:56:11+00:00,228224171,227766166,0,Peterkingiron,Anarchism in the United States,/* Contemporary anarchists */
2007-10-22T01:09:06+00:00,166180204,166165793,0,TheOldJacobite,Anarchism in the United States,[[WP:UNDO|Undid]] revision 166165793 by [[Special:Contributions/64.252.131.177|64.252.131.177]] ([[User talk:64.252.131.177|talk]])
2007-06-06T23:21:23+00:00,136475030,136297351,0,PBS,Anarchism in the United States,/* Re-emergence of anarchism in the U.S. */ Diggers (theater)
2009-05-12T21:00:10+00:00,289543974,288116834,0,RussBot,Anarchism in the United States,Robot-assisted fix [[WP:DPL|links to disambiguation page]] State
2008-03-27T12:32:48+00:00,201307384,201269548,0,SmackBot,Anarchism in the United States,Date the maintenance tags or general  fixes
2008-05-27T16:46:25+00:00,215304908,214671478,0,DOI bot,Anarchism in the United States,Citation maintenance. You can [[WP:DOI|use this bot]] yourself! Please [[User:DOI_bot/bugs|report any bugs]].
2006-08-08T15:47:15+00:00,68419238,68418829,0,Blockader,Anarchism in the United States,
2007-08-29T18:06:26+00:00,154425338,154221681,0,SmackBot,Anarchism in the United States,Date/fix the maintenance tags or gen fixes
2009-02-10T04:54:11+00:00,269705959,269242208,0,72.231.221.226,Anarchism in the United States,/* External links */
2007-06-26T18:59:17+00:00,140791337,140790496,0,Vision Thing,Anarchism in the United States,/* Murray Rothbard */ POV correction
2010-01-10T03:50:19+00:00,336932190,335281409,0,Rjuner,Anarchism in the United States,
2009-10-31T17:11:55+00:00,323127625,322599914,0,WebCiteBOT,Anarchism in the United States,BOT adding link to [[WebCite]] archive of [[Encarta#Closure|soon to be defunct]] [[Encarta]] link(s)
2007-11-01T17:08:43+00:00,168539336,168538074,0,TheOldJacobite,Anarchism in the United States,[[WP:UNDO|Undid]] revision 168538074 by [[Special:Contributions/75.41.28.15|75.41.28.15]] ([[User talk:75.41.28.15|talk]])
2009-03-07T18:35:08+00:00,275641743,275208485,0,Cast,Anarchism in the United States,Section order clean up. External links still need to be cleaned. Several are currently dead. Others seem redundant.
2007-07-15T04:00:25+00:00,144730688,143937468,0,Skomorokh,Anarchism in the United States,/* See also */ rm articles already linked to
2007-08-08T06:50:15+00:00,149927876,149920177,0,Allixpeeke,Anarchism in the United States,/* Re-emergence of anarchism in the U.S. */
2009-12-21T21:08:21+00:00,333123632,332806803,0,R'n'B,Anarchism in the United States,Fix [[WP:DPL|links]] to [[WP:D|disambiguation]] page [[Reservation]]
2008-05-16T16:10:06+00:00,212857314,208313227,0,Gokusandwich,Anarchism in the United States,/* Murray Rothbard */
2006-12-30T08:21:37+00:00,97304958,96964324,0,Canaen,Anarchism in the United States,/* Murray Bookchin */
2008-12-14T11:55:15+00:00,257891714,255736784,0,Citation bot,Anarchism in the United States,Updating page numbers after [[Template_talk:Cite_book#Ready_to_go|recent improvement]] to [[Template:Cite book]]. Removed redundant parameters.
2007-10-13T15:49:42+00:00,164296329,161559514,0,JayJasper,Anarchism in the United States,/* See also */ rmv. invalid link
2009-07-21T22:45:38+00:00,303425506,289543974,0,Will Beback,Anarchism in the United States,/* Contemporary anarchists */ rm nn
2008-01-17T07:15:21+00:00,184928529,183558821,0,OrphanBot,Anarchism in the United States,Removing [[:Image:JosiahWarrenprofile.jpg|image]] with no source information.  Such images that are older than seven days may be deleted at any time.
2007-04-15T23:51:51+00:00,123109760,121385221,0,Coelacan,Anarchism in the United States,/* Benjamin Tucker */ no source info
2008-08-20T13:00:07+00:00,233105100,232971908,0,Skomorokh,Anarchism in the United States,Reverted edits by [[Special:Contributions/UnitedStatesian|UnitedStatesian]] ([[User talk:UnitedStatesian|talk]]) to last version by DumZiBoT
2007-06-23T15:59:52+00:00,140126908,136475030,0,208.106.21.223,Anarchism in the United States,/* Contemporary anarchists */
2007-03-14T23:33:54+00:00,115190431,114232025,0,Dylan Lake,Anarchism in the United States,"Disambiguation, link to [[Freedom]]"
2006-09-29T17:11:30+00:00,78532604,78531277,0,66.92.233.238,Anarchism in the United States,/* Overview */
2007-12-05T21:38:59+00:00,176012451,171837253,0,Larklight,Anarchism in the United States,/* Re-emergence of anarchism in the U.S. */ wikilink
2007-01-31T07:56:54+00:00,104535560,104533073,0,Will Beback,Anarchism in the United States,"Protected Anarchism in the United States: edit conflicts, best sorted on talk page [edit=sysop:move=sysop]"
2006-10-30T05:51:41+00:00,84569762,83477011,0,68.51.151.170,Anarchism in the United States,/* Conflicts within Anarchism in the United States */
2009-06-16T13:20:16+00:00,296751642,296152692,0,RekishiEJ,Anarchism without adjectives,/* History */
2007-05-21T17:34:27+00:00,132479482,127816004,0,Sondon Luede,Anarchism without adjectives,"/* Prominent ""anarchists without adjectives"" */ Fred Woodworth"
2010-01-09T15:27:32+00:00,336808858,332201802,0,LilHelpa,Anarchism without adjectives,"General fixes and [[WP:AWB/T|Typo fixing]], Replaced: opnion → opinion, using [[Project:AWB]]"
2006-09-13T00:51:26+00:00,75407614,72826505,0,CesarB,Anarchism/historical,"old temporary copy of article, edit stopped a long time ago; redirecting to main article"
2008-03-18T23:10:17+00:00,199209235,191577607,0,Skomorokh,Anarchism without adjectives,"moving ex links to correct position, add one"
2008-06-14T04:47:39+00:00,219224695,219224498,0,Causa sui,Anarchist communism,/* Economic Theory */
2006-09-26T02:03:30+00:00,77830139,75006379,0,70.55.82.170,Anarchist communism,/* Criticisms */
2008-08-14T09:36:34+00:00,231872887,230819596,0,VolkovBot,Anarchist communism,robot  Modifying: [[es:Anarcocomunismo]]
2007-06-01T12:12:24+00:00,135071664,134850901,0,SmackBot,Anarchist communism,Date/fix the maintenance tags or gen fixes
2010-01-26T04:57:35+00:00,340074060,339901275,0,68.239.157.9,Anarchist communism,/* Capitalist */
2010-01-15T14:42:54+00:00,338001798,338001001,0,Helvetius,Anarchist communism,/* First International */  +Covelli & Pernicone ref
2008-10-12T05:25:19+00:00,244719012,243546599,0,98.122.136.220,Anarcho-capitalism,/* Intellectual property */
2009-08-14T13:13:41+00:00,307932333,307931129,0,Skomorokh,Anarcho-capitalism,revert good faith edit - it is not clear which source this content is taken from
2008-08-30T07:00:37+00:00,235140251,233860767,0,Andy Marchbanks,Anarcho-capitalism,
2007-12-06T01:17:49+00:00,176058181,174150598,0,Gokusandwich,Anarchist communism,/* Development of ideas */
2007-09-05T21:53:59+00:00,155922002,155920313,0,Knight of BAAWA,Anarcho-capitalism,"[[WP:UNDO|Undid]] revision 155920313 by [[Special:Contributions/12.215.240.223|12.215.240.223]] ([[User talk:12.215.240.223|talk]]) It's Tower, not Towel."
2009-03-02T16:57:10+00:00,274462827,274354231,0,Mario Pajas,Anarcho-capitalism,
2008-08-04T05:59:53+00:00,229720322,229714789,0,Arbor to SJ,Anarcho-capitalism,Reverted 1 edit by [[Special:Contributions/24.20.136.43|24.20.136.43]] identified as [[WP:VAND|vandalism]] to last revision by [[User:D-Notice|D-Notice]]. ([[WP:TW|TW]])
2007-06-26T07:50:35+00:00,140695722,140440515,0,66.140.100.50,Anarcho-capitalism,/* External links */
2008-06-21T06:32:40+00:00,220719046,220718865,0,Marketorama,Anarcho-capitalism,/* Private property */
2007-05-05T10:52:20+00:00,128404105,127404584,0,JASpencer,Anarcho-capitalism,/* Nonfiction */
2007-10-17T11:36:59+00:00,165162081,165161695,0,Skomorokh,Anarcho-capitalism,"/* Historical precedents for anarcho-capitalism */ rm forced image size, add see also link to [[List of anarchist communities]]"
2007-07-30T12:46:55+00:00,148042987,148006845,0,Brighterorange,Anarcho-capitalism,(auto: 15 en dash; 1 comma; 1 ref)
2009-03-09T18:47:24+00:00,276087646,275665395,0,Skomorokh,Anarcho-capitalism,withdraw merge proposal per consensus
2009-11-24T18:20:57+00:00,327705032,327704906,0,Tim1357,Anarcho-capitalism,Reverted edits by [[Special:Contributions/209.158.69.99|209.158.69.99]] to last revision by Chowbok ([[WP:HG|HG]])
2009-11-09T05:11:13+00:00,324788219,324532379,0,Chowbok,Anarcho-capitalism,clean up using [[Project:AutoWikiBrowser|AWB]]
2009-10-02T17:44:54+00:00,317503672,316766153,0,KelleyCook,Anarcho-capitalism,Disambiguate [[John C. Wright]] to [[John C. Wright (author)]] using [[:en:Wikipedia:Tools/Navigation_popups|popups]]
2007-11-11T09:42:43+00:00,170719273,170354668,0,Paddles,Anarcho-capitalism,Fixing [[Wikipedia:Disambiguation pages with links|links to disambiguation pages]]  using [[Project:AutoWikiBrowser|AWB]]
2009-02-24T02:12:09+00:00,272867185,272854729,0,Jadabocho,Anarcho-capitalism,restoring sidebar. plenty of sources say that anarcho-capitalism is an individualist philosophy.
2007-04-03T04:37:21+00:00,119901099,119809179,0,Anarko-Kapitalizt,Anarcho-capitalism,
2006-11-13T22:06:49+00:00,87623308,87593768,0,Snow Shoes,Anarcho-capitalism,/* Law and order and the use of violence */ Removing pov and weasel words
2006-07-14T23:45:45+00:00,63872490,63868618,0,H3h,Anarcho-capitalism,/* Private law and order */ Missing letter.
2007-05-20T21:02:22+00:00,132295063,132292987,0,Jacob Haller,Anarcho-capitalism,restored third sources subsection
2008-06-15T17:25:10+00:00,219525702,219525522,0,Marketorama,Anarcho-capitalism,/* Common property */
2008-03-01T14:25:03+00:00,195117930,194945443,0,Fang 23,Anarcho-capitalism,/* Other */  added Category:Anarchism by genre
2007-09-22T00:00:07+00:00,159501553,159094499,0,Cholling,Anarcho-capitalism,/* Fiction */ italics
2008-10-15T02:01:28+00:00,245355629,244884161,0,71.207.89.188,Anarcho-capitalism,"removed nonintrusive, because the distinction is unnessecary, and if these things were intrusive, they would still not be regulated."
2009-05-01T16:29:00+00:00,287275023,287191277,0,RayBirks,Anarcho-capitalism,blogs not valid as reference
2009-08-29T03:39:24+00:00,310656990,309087007,0,JLMadrigal,Anarcho-capitalism,
2008-11-23T23:23:36+00:00,253684535,253657494,0,Knight of BAAWA,Anarcho-capitalism,reverting vandalism
2009-09-21T21:45:46+00:00,315375101,315374923,0,Sageo,Anarcho-capitalism,my mistake
2009-03-21T12:05:49+00:00,278721263,276901371,0,JLMadrigal,Anarcho-capitalism,fix link
2007-02-20T21:56:03+00:00,109656581,109604083,0,Vision Thing,Anarcho-capitalism,/* That anarcho-capitalism is not a legitimate form of anarchism */ several
2007-09-03T00:23:52+00:00,155312796,154574278,0,Bastin,Anarcho-capitalism,Category
2009-04-14T14:21:36+00:00,283784699,283772120,0,Soxwon,Anarcho-capitalism,[[WP:UNDO|Undid]] revision 283772120 by [[Special:Contributions/EyeSeeDeadPeople|EyeSeeDeadPeople]] ([[User talk:EyeSeeDeadPeople|talk]]) rv:sockpuppet
2009-01-18T12:30:26+00:00,264856609,264856407,0,Vision Thing,Anarcho-capitalism,/* Law and order and the use of violence */ dead source
2006-10-12T16:54:46+00:00,81038323,80869308,0,144.124.16.28,Anarcho-capitalism,/* Criticisms claiming that anarcho-capitalism is not a legitimate form of anarchism */
2009-08-20T16:07:07+00:00,309087007,309086771,0,Likeminas,Anarcho-capitalism,correcting template
2007-02-01T03:37:09+00:00,104759112,104479003,0,Anarcho-capitalism,Anarcho-capitalism,deleting superfluous fragment
2006-12-04T04:37:37+00:00,91933242,91662302,0,P4k,Anarcho-capitalism,"added ""anarchism series"" template"
2008-11-13T21:57:24+00:00,251641266,251240281,0,Rjwilmsi,Anarcho-capitalism,"[[User:Rjwilmsi#Other_fixes|gen fixes]]: (1) fix web link format (0),  using [[Project:AutoWikiBrowser|AWB]]"
2008-04-07T00:38:18+00:00,203876703,202618764,0,Naohiro19,Anarcho-capitalism,"clean up(Fix Links, or etc.)  using [[Project:AutoWikiBrowser|AWB]]"
2009-04-20T17:59:17+00:00,285057074,284903156,0,Nihilo 01,Anarcho-capitalism,"It is not necessary to repeat arguments (and to use offensive califfications). About sources, I believe it refers to schoolar works not to leftist panflets."
2008-05-05T21:03:12+00:00,210415709,209432273,0,LinkFA-Bot,Anarcho-capitalism,Bot: [[Template:Link FA|Link FA]] -'eo'
2007-12-20T15:42:30+00:00,179196688,179196412,0,Skomorokh,Anarcho-capitalism,/* Further reading */ +context
2008-04-17T18:43:41+00:00,206301525,205874847,0,Chowbok,Anarcho-capitalism,"clean up, Replaced: ® →  (2)  using [[Project:AutoWikiBrowser|AWB]]"
2007-09-15T12:14:01+00:00,158037325,157161181,0,Intgr,Anarcho-capitalism,Avoid plural redirects  using [[Project:AutoWikiBrowser|AWB]]
2008-09-24T05:56:43+00:00,240622554,240578318,0,88.117.79.145,Anarcho-capitalism,/* Intellectual property */
2008-08-07T14:34:20+00:00,230411973,230031270,0,JLMadrigal,Anarcho-capitalism,remove redundancy
2008-07-07T06:57:04+00:00,224088821,224088665,0,Allixpeeke,Anarcho-capitalism,/* Capitalism */
2009-12-15T04:01:52+00:00,331745507,330591446,0,71.65.37.241,Anarcho-capitalism,/* Anarcho-capitalism today */
2008-04-15T21:02:53+00:00,205874847,205186564,0,Spoirier~enwiki,Anarcho-capitalism,/* External links */ infoliberalism
2007-05-23T16:20:08+00:00,132959174,132951927,0,82.211.83.9,Anarcho-capitalism,/* Related subjects */
2006-08-25T15:03:20+00:00,71818163,71807372,0,Twobitsprite,Anarcho-capitalism,"/* Anarchism and anarcho-capitalism */ I think we can safely upgrade ""several"" to ""many"""
2007-10-04T20:55:45+00:00,162322489,162290127,0,Klausmeyer,Anarcho-capitalism,Typo
2009-07-22T07:51:35+00:00,303493625,303493570,0,William Avery,Anarcho-capitalism,Reverted edits by [[Special:Contributions/173.34.99.178|173.34.99.178]] to last revision by William Avery ([[WP:HG|HG]])
2007-11-15T01:35:41+00:00,171569457,171563531,0,Knight of BAAWA,Anarcho-capitalism,/* The nonaggression axiom */ reverting
2008-03-15T16:12:44+00:00,198427522,198427450,0,71.175.31.106,Anarcho-capitalism,
2009-05-13T21:00:45+00:00,289748140,289747620,0,Skomorokh,Anarcho-capitalism,"revert, edit did not make clear which source the added information was taken from"
2009-06-22T04:47:02+00:00,297854395,297853185,0,Sweetness46,Anarcho-capitalism,Reverted edits by [[Special:Contributions/90.224.97.204|90.224.97.204]] to last revision by 74.179.117.246 ([[WP:HG|HG]])
2007-11-25T02:36:02+00:00,173606843,173604475,0,Knight of BAAWA,Anarcho-capitalism,[[WP:UNDO|Undid]] revision 173604475 by [[Special:Contributions/128.83.195.102|128.83.195.102]] ([[User talk:128.83.195.102|talk]]) No reason for wholesale removal
2007-03-29T12:58:36+00:00,118766337,118182372,0,Lordmetroid,Anarcho-capitalism,Revert section because a prose beiong ill-edited
2007-10-25T18:02:38+00:00,167028765,166642173,0,Vision Thing,Anarcho-capitalism,"verification for these sources was requested in July, if you can verify them please do, but until then don't bring them back"
2008-05-01T11:05:20+00:00,209432273,206301525,0,78.105.140.55,Anarcho-capitalism,incorrect semi colon use
2007-03-02T20:25:40+00:00,112151953,111537843,0,62.245.36.193,Anarcho-capitalism,/* Fiction */
2006-10-03T18:43:34+00:00,79296218,79295613,0,Aaron Schulz,Anarcho-capitalism,Protected Anarcho-capitalism: Users engaging in edit warring. [edit=sysop:move=sysop]
2007-02-07T01:07:28+00:00,106200576,106200194,0,Flauto Dolce,Anarcho-capitalism,Reverted edits by [[Special:Contributions/68.62.67.237|68.62.67.237]] to last version by Vision Thing
2007-11-07T09:37:16+00:00,169830734,167820960,0,JohnGaltJr,Anarcho-capitalism,
2009-09-10T13:37:49+00:00,312991669,312924572,0,ArthurBot,Anarcho-capitalism,robot Modifying: [[pt:Anarcocapitalismo]]
2009-10-13T12:31:08+00:00,319611986,319537635,0,Knight of BAAWA,Anarcho-capitalism,rvv
2008-09-16T21:47:15+00:00,238894488,238889872,0,TheOldJacobite,Anarcho-capitalism,[[WP:UNDO|Undid]] revision 238889872 by [[Special:Contributions/216.240.92.210|216.240.92.210]] ([[User talk:216.240.92.210|talk]])
2008-07-27T06:48:56+00:00,228145909,228142149,0,Skomorokh,Anarcho-capitalism,update info
2008-02-26T19:29:56+00:00,194230368,194006464,0,Lapafrax,Anarcho-capitalism,
2006-11-17T21:17:33+00:00,88495681,88494658,0,24.119.39.64,Anarcho-capitalism,Reverted edits by 24.119.39.64
2008-10-16T02:01:24+00:00,245579886,245568349,0,TheOldJacobite,Anarcho-capitalism,Rv; Raymond's anarcho-capitalism is in dispute.
2007-04-06T03:59:47+00:00,120657362,120397660,0,FargoWells,Anarcho-capitalism,/* Classical liberalism */
2009-07-07T18:24:06+00:00,300838084,300835345,0,Vision Thing,Anarcho-capitalism,[[WP:UNDO|Undid]] revision 300835345 by [[Special:Contributions/71.241.218.107|71.241.218.107]] ([[User talk:71.241.218.107|talk]])
2007-05-06T15:38:54+00:00,128665038,128664857,0,70.44.177.99,Anarcho-capitalism,/* External links */
2007-10-13T13:21:50+00:00,164273904,164074298,0,JLMadrigal,Anarcho-capitalism,link to [[Ideal (ethics)]] article
2006-12-11T14:27:43+00:00,93580528,93579728,0,Bubba hotep,Anarcho-capitalism,rm PoV of author
2007-03-18T19:48:08+00:00,116078350,115944865,0,Pvasiliadis,Anarcho-capitalism,+el
2006-10-25T03:59:31+00:00,83570647,83527147,0,Nikodemos,Anarcho-capitalism,
2007-12-29T09:59:24+00:00,180775139,180773336,0,Rich Farmbrough,Anarcho-capitalism,clean up  using [[Project:AutoWikiBrowser|AWB]]
2007-01-16T03:19:41+00:00,101023365,101021516,0,Anarcho-capitalism,Anarcho-capitalism,
2008-06-25T13:40:44+00:00,221651496,221532895,0,190.154.162.130,Anarcho-capitalism,"it´s ""axiomatic"", not syncretist"
2007-02-28T08:44:17+00:00,111537843,111487089,0,203.101.61.7,Anarcho-capitalism,/* Other */
2008-10-19T16:54:46+00:00,246314137,246314051,0,74.173.8.192,Anarcho-capitalism,
2007-10-29T11:41:39+00:00,167820960,167771749,0,Skomorokh,Anarcho-capitalism,[[WP:UNDO|Undid]] revision 167771749 by [[Special:Contributions/35.13.233.52|35.13.233.52]] ([[User talk:35.13.233.52|talk]]) no rationale
2006-10-23T06:43:54+00:00,83161560,83160685,0,Dylan Lake,Anarcho-capitalism,fixed formatting
2008-11-30T21:00:38+00:00,255058682,253684535,0,Citation bot,Anarcho-capitalism,Updating page numbers after [[Template_talk:Cite_book#Ready_to_go|recent improvement]] to [[Template:Cite book]]. Formatted: pages.
2007-08-11T11:11:00+00:00,150574749,150174001,0,Skomorokh,Anarcho-capitalism,"/* Anarcho-capitalist literature */ cleanup: remove pov, fix formatting, elaborated citations using [[template:cite-web]], redlinks, wikilinks."
2007-10-18T17:14:55+00:00,165443252,165162081,0,Blackij,Anarcho-capitalism,/* External links */  Adding link to Cato Unbound essay series
2009-11-07T22:13:31+00:00,324532379,324532062,0,Embeee,Anarcho-capitalism,/* Anarcho-capitalism today */
2006-09-02T04:24:22+00:00,73346962,73258563,0,That'sHot,Anarcho-capitalism,a little bit of wording change and also noting that they think the state creates monopolies
2006-08-28T16:17:11+00:00,72410413,72313738,0,SmackBot,Anarcho-capitalism,ISBN formatting &/or general fixes  using [[WP:AWB|AWB]]
2009-01-21T14:40:06+00:00,265488313,264856609,0,MystBot,Anarcho-capitalism,robot  Adding: [[pt:Anarco-capitalismo]]
2006-09-05T21:34:00+00:00,74022419,74013736,0,Salvadors,Anarcho-capitalism,/* Individualist anarchism in the United States */
2006-09-22T20:13:47+00:00,77231955,77169513,0,85.25.109.33,Anarcho-capitalism,/* Individualist anarchism in the United States */
2009-12-28T00:16:09+00:00,334402259,334398602,0,Knight of BAAWA,Anarcho-capitalism,reverting back 2 revisions--no valid reason for wholesale section eliminations
2009-09-01T01:57:10+00:00,311196139,310656990,0,Libertatis,Anarcho-capitalism,/* External links */ commons
2009-02-12T16:38:24+00:00,270246784,269932200,0,82.38.142.82,Anarcho-capitalism,removed fragment/artifact
2008-01-20T14:17:23+00:00,185643639,185077960,0,JLMadrigal,Anarcho-capitalism,/* Common property */ [[Free-market environmentalism]]
2008-06-08T06:20:50+00:00,217902302,217902108,0,75.175.87.156,Anarcho-capitalism,/* Anarcho-capitalist websites and articles */
2009-12-09T02:38:23+00:00,330591446,330332407,0,Full-date unlinking bot,Anarcho-capitalism,Unlinking full-dates. [[User:Full-date unlinking bot|Details here]]. Codes: BRreg(×1)
2009-10-16T17:55:07+00:00,320251324,319611986,0,78.92.39.240,Anarcho-capitalism,/* Another state would replace the first */
2009-06-18T05:14:09+00:00,297101844,296853249,0,74.179.117.246,Anarcho-capitalism,/* The Austrian School */
2007-03-05T16:31:38+00:00,112833598,112151953,0,DickClarkMises,Anarcho-capitalism,/* Nineteenth century individualist anarchism in the United States */ wikify
2007-06-17T23:39:50+00:00,138866360,138342264,0,Etcetc,Anarcho-capitalism,"These sources are valid, if you have any problem with an individual source bring it up on talk, removing them all on a whim is totally out of bounds"
2008-05-14T18:58:23+00:00,212413223,210415709,0,Kbdankbot,Anarcho-capitalism,Robot - move category per [[WP:CFD|CFD]] [[Wikipedia:Categories for discussion/Log/2008 May 8|2008 May 8]]
2007-04-26T22:05:48+00:00,126247941,126236427,0,Endlessmike 888,Anarcho-capitalism,[[WP:UNDO|Undid]] revision 125412090 by [[Special:Contributions/66.188.99.241|66.188.99.241]] ([[User talk:66.188.99.241|talk]])objectivists do not argue from a hobbesian view
2008-08-05T18:20:44+00:00,230031270,229960297,0,66.93.216.25,Anarcho-capitalism,"/* Criticisms of anarcho-capitalism */  changed non-restrictive ""which"" to restrictive ""that"""
2008-08-19T18:06:20+00:00,232948226,232948104,0,Vision Thing,Anarcho-capitalism,/* Stability of anarcho-capitalist legal institutions */ rm breaks
2008-05-27T16:27:09+00:00,215300869,215299847,0,VBGFscJUn3,Anarcho-capitalism,"/* The label ""anarcho-capitalism"" */ replaced ""average Joe"" (USA-centric phrase) with ""average person"""
2009-01-18T04:20:43+00:00,264805944,263968528,0,SmackBot,Anarcho-capitalism,tag
2007-02-18T23:25:21+00:00,109173676,108700956,0,Sjeng,Anarcho-capitalism,/* Related subjects */ list in 2 columns
2008-06-20T17:26:06+00:00,220601464,220308022,0,Marketorama,Anarcho-capitalism,"/* The nonaggression axiom */ ok, no source for egoist anarcho-capitalists"
2006-11-10T01:14:54+00:00,86843971,86831378,0,Anarcho-capitalism,Anarcho-capitalism,deleted cut and pasted market anarchism info. it's not really relevant.
2006-12-15T12:58:44+00:00,94499472,94440719,0,JLMadrigal,Anarcho-capitalism,/* That anarcho-capitalism is not a legitimate form of anarchism */
2007-01-28T03:21:45+00:00,103752968,103752358,0,85.10.219.110,Anarcho-capitalism,/* Law and order and the use of violence */
2008-03-10T23:43:04+00:00,197360747,197360135,0,Knight of BAAWA,Anarcho-capitalism,"Partial reversion--""understanding as"" makes no sense in context"
2008-10-22T00:45:39+00:00,246846851,246314137,0,NuclearWarfare,Anarcho-capitalism,"[[WP:AWB/T|Typo fixing]], date unlinking per [[wp:mosnum]], and other using AWB, typos fixed: complaint → compliant  using [[Project:AutoWikiBrowser|AWB]]"
2007-05-15T14:31:31+00:00,131035718,131016318,0,Lordmetroid,Anarcho-capitalism,"Reverted, your sentenceing doesn't make sense..."
2007-03-25T11:37:35+00:00,117732699,117697847,0,Liftarn,Anarcho-capitalism,Reverting after 88.229.140.75
2008-07-02T02:37:54+00:00,222995968,222677819,0,Aldrich Hanssen,Anarcho-capitalism,/* See also */ * [[Aggression insurance]]
2008-12-07T21:05:19+00:00,256484035,256477346,0,TheOldJacobite,Anarcho-capitalism,/* Fiction */ ---Format fix on video game.
2006-08-22T15:05:43+00:00,71180022,70965115,0,That'sHot,Anarcho-capitalism,unnecessary word
2008-10-29T02:45:03+00:00,248335126,248263343,0,RayBirks,Anarcho-capitalism,not a minor change; is personal opinion with no citation
2009-02-11T14:42:50+00:00,270005950,270005819,0,Idag,Ayn Rand,more formatting
2007-10-02T21:43:22+00:00,161882381,161596274,0,81.208.36.84,Ayn Rand,/* Philosophical criticism */
2009-02-07T00:01:24+00:00,269026082,268826776,0,SmackBot,Black rice,Date maintenance tags and general  fixes
2006-10-02T17:16:59+00:00,79069054,79065584,0,12.47.13.135,Ayn Rand,
2006-08-06T07:24:18+00:00,67967734,67966489,0,68.94.55.161,Ayn Rand,/* Declining health and death */
2009-07-06T13:15:38+00:00,300590738,300329836,0,Binary TSO,Breakfast cereal,[[WP:RBK|Reverted]] edits by [[Special:Contributions/218.186.10.254|218.186.10.254]] ([[User talk:218.186.10.254|talk]]) to last version by Surv1v4l1st
2006-10-03T07:04:40+00:00,79202099,79120976,0,Red Deathy,Capitalism,/* Marxian political economy */ Restoring the mugshot of Charlie for reasons of style/presentation and consistency.
2009-06-16T17:48:14+00:00,296795259,296792852,0,Nubeli,Capitalism,moved History above Perspectives so readers have an overview first before getting all the details.
2008-10-17T13:48:45+00:00,245890912,245890846,0,129.21.180.102,Breakfast cereal,
2006-10-16T19:04:31+00:00,81836358,81516685,0,David Chiang,Black rice,
2007-08-12T23:18:12+00:00,150850638,150716109,0,Olofmbolsson,Capitalism,/* External links */  since there was no reaction to my comment of 7 august i have removed two external links that--as i see it--mostly contained propaganda
2006-09-05T09:52:34+00:00,73919655,73919046,0,MONGO,Capitalism,Reverted edits by [[Special:Contributions/194.201.98.210|194.201.98.210]] ([[User talk:194.201.98.210|talk]]) to last version by Ultramarine
2006-09-29T15:54:46+00:00,78519797,78519546,0,Slrubenstein,Capitalism,Reverted edits by [[Special:Contributions/67.110.176.98|67.110.176.98]] ([[User talk:67.110.176.98|talk]]) to last version by AntiVandalBot
2008-01-14T23:51:02+00:00,184367888,184364868,0,89.220.69.17,Capitalism,
2009-11-03T20:25:46+00:00,323758136,323755369,0,89.164.76.169,Capitalism,/* Political freedom */
2009-11-21T13:13:24+00:00,327106088,326892775,0,Davidius Michael,Capitalism,"/* Democracy */ changed the word ""my"" to ""by"" in the last sentence of the second-to-last paragraph"
2006-10-08T00:14:45+00:00,80119391,80119274,0,Omicronpersei8,Capitalism,Reverted edits by [[Special:Contributions/68.83.82.153|68.83.82.153]] ([[User talk:68.83.82.153|talk]]) to version 79926539 by 172 using [[WP:SNIPE|VS]]
2007-08-29T00:00:46+00:00,154279056,154216499,0,Olofmbolsson,Capitalism,/* External links */  again removed links which neutrality is doubtfull
2008-05-14T01:46:02+00:00,212257039,212256883,0,JNW,Capitalism,Reverted edits by [[Special:Contributions/70.173.213.76|70.173.213.76]] ([[User talk:70.173.213.76|talk]]) to last version by Shinpah1
2007-08-02T19:07:55+00:00,148775930,148129131,0,Aeons,Capitalism,layour per [[WP:LAYOUT]]
2008-09-16T03:38:49+00:00,238734603,238734583,0,Flewis,Capitalism,Reverted edits by [[Special:Contributions/75.80.154.198|75.80.154.198]] to last version by Marlith ([[WP:HG|HG]])
2008-01-26T21:45:23+00:00,187107889,187107787,0,D,Capitalism,Reverted edits by [[Special:Contributions/69.110.66.176|69.110.66.176]] ([[User talk:69.110.66.176|talk]]) to last version by Doopdoop
2009-05-04T20:13:27+00:00,287911721,287862904,0,VoluntarySlave,Capitalism,/* Etymology */ Betham-Edwards edition at OLL appears to be abridged; changed link to full text at google.
2006-08-18T22:21:38+00:00,70485554,70481403,0,The Ungovernable Force,Capitalism,"/* See also */ readding usury--the page on it mentions capitalism a few times, and I know that within anarchist thought at least, usury is considered a common part of capitalism"
2006-07-01T07:56:06+00:00,61512807,61512716,0,Lulu of the Lotus-Eaters,Capitalism,User Marxian here too
2007-06-10T19:37:16+00:00,137300296,137299939,0,Chaser,Capitalism,protected until dispute is resolved
2008-12-28T17:12:37+00:00,260512530,260511738,0,JLMadrigal,Capitalism,fix paragraph unity: laissez faire goes with anarcho-capitalism
2010-02-12T00:15:38+00:00,343450153,343430262,0,174.124.164.184,Capitalism,
2010-01-31T02:43:26+00:00,341016675,341016340,0,Dayewalker,Capitalism,"Rmv unsourced, COI."
2006-07-23T16:25:25+00:00,65392854,65249776,0,IslandHopper973,Capitalism,/* Weberian political sociology */ Disambiguation link repair - [[Wikipedia:Disambiguation pages with links|You can help!]]
2009-03-19T13:58:22+00:00,278328513,278328449,0,Frosted14,Capitalism,Reverted edits by [[Special:Contributions/68.15.41.204|68.15.41.204]] to last revision by ClueBot ([[WP:HG|HG]])
2006-12-19T23:23:44+00:00,95404109,95403475,0,Max rspct,Capitalism,Revert to revision 95364059 dated 2006-12-19 20:06:39 by Dullfig using [[:en:Wikipedia:Tools/Navigation_popups|popups]]
2008-06-29T20:35:33+00:00,222525950,222402321,0,Singwaste,Capitalism,"Quick-adding category ""Economic liberalism"" (using [[WP:HOTCAT|HotCat]])"
2007-08-22T23:16:15+00:00,153028659,152995303,0,Jacob Haller,Capitalism,rv extra commas
2007-05-04T04:31:52+00:00,128141116,127799836,0,203.122.247.206,Capitalism,/* Capitalism following the Great Depression */
2009-06-13T15:49:14+00:00,296183436,295930164,0,Pgreenfinch,Capitalism,"don't see how labor is ""owned"""
2009-08-30T06:18:08+00:00,310846048,310845931,0,Dayewalker,Capitalism,[[WP:RBK|Reverted]] edits by [[Special:Contributions/58.178.145.145|58.178.145.145]] ([[User talk:58.178.145.145|talk]]) to last version by BernardL
2008-12-17T02:18:12+00:00,258488909,258488462,0,69.122.31.177,Capitalism,
2006-07-07T15:14:18+00:00,62566285,62565740,0,Lulu of the Lotus-Eaters,Capitalism,more relevant enviro critique is actually capitalism indifference to ecosystems
2008-04-18T20:57:35+00:00,206567422,206567334,0,J.delanoy,Capitalism,Reverted 1 edit by [[Special:Contributions/74.39.72.154|74.39.72.154]] to last version by Quintote
2006-10-12T00:36:15+00:00,80918658,80918645,0,AntiVandalBot,Capitalism,BOT - rv [[Special:Contributions/130.217.76.77|130.217.76.77]] ([[User talk:130.217.76.77|talk]]) to last version by Natewest
2007-08-17T19:34:52+00:00,151887427,151885762,0,24.233.190.157,Capitalism,
2009-08-08T04:53:39+00:00,306738624,306737490,0,Nubeli,Capitalism,replaced 3rd paragraph b/c there was still a hole in providing a summary of the Perspectives and Advocacy. a starting point
2006-08-21T02:34:12+00:00,70882749,70881060,0,"Chase me ladies, I'm the Cavalry",Capitalism,Revert to revision 70879859 dated 2006-08-21 02:14:18 by JBogdan using [[:en:Wikipedia:Tools/Navigation_popups|popups]]
2009-11-23T05:57:33+00:00,327424641,327424471,0,John,Capitalism,[[Help:Reverting|Reverted]] edits by [[Special:Contributions/Austiiinnnn|Austiiinnnn]] ([[User talk:Austiiinnnn|talk]]) to last version by John
2009-08-10T18:53:41+00:00,307214332,307034051,0,174.16.95.227,Capitalism,
2009-10-14T20:16:09+00:00,319877517,319852467,0,Soxwon,Capitalism,[[WP:UNDO|Undid]] revision 319852467 by [[Special:Contributions/76.216.132.33|76.216.132.33]] ([[User talk:76.216.132.33|talk]])
2006-11-11T05:08:24+00:00,87090890,87090841,0,172,Capitalism,/* Proponents of capitalism */ rm out-of-place chart
2008-03-02T11:55:05+00:00,195307421,195297417,0,Snigbrook,Capitalism,"Reverted to revision 194650880 by [[Special:Contributions/JAnDbot|JAnDbot]]; rm ""Judaism"" box and categories. ([[WP:TW|TW]])"
2009-11-11T20:21:56+00:00,325304306,325303016,0,Yakooza2,Capitalism,[[WP:UNDO|Undid]] revision 325303016 by [[Special:Contributions/Soxwon|Soxwon]] ([[User talk:Soxwon|talk]])
2008-11-17T05:57:13+00:00,252311645,252310134,0,SummerWithMorons,Capitalism,core requirement of employment
2009-12-18T19:50:38+00:00,332542313,332541610,0,Arbor to SJ,Capitalism,[[Help:Reverting|Reverted]] edits by [[Special:Contributions/65.32.158.207|65.32.158.207]] ([[User talk:65.32.158.207|talk]]) to last version by 71.185.10.126
2008-03-27T12:35:57+00:00,201307825,201305632,0,Slrubenstein,Capitalism,Reverted edits by [[Special:Contributions/24.105.166.19|24.105.166.19]] ([[User talk:24.105.166.19|talk]]) to last version by Daniel J. Leivick
2008-11-07T23:20:39+00:00,250334583,250152829,0,Segregold,Capitalism,/* Classical political economy */
2009-08-25T18:26:08+00:00,310015018,310014613,0,Killiondude,Capitalism,Reverted 1 edit by [[Special:Contributions/170.185.83.19|170.185.83.19]] identified as [[WP:VAND|vandalism]] to last revision by [[User:Introman|Introman]]. ([[WP:TW|TW]])
2009-07-27T21:03:16+00:00,304548778,304548542,0,Vision Thing,Capitalism,moving down
2008-08-27T20:38:46+00:00,234643710,234643440,0,Iridescent,Capitalism,Reverted edits by [[Special:Contributions/74.39.186.25|74.39.186.25]] to last version by Eeekster ([[WP:HG|HG]])
2008-01-23T14:05:07+00:00,186342138,186341638,0,Cometstyles,Capitalism,Revert previous revision by [[Special:Contributions/74.95.174.161|74.95.174.161]]
2008-07-22T08:45:13+00:00,227168531,227099401,0,Zorrobot,Capitalism,robot  Adding: [[diq:Qapitalizm]]
2007-06-08T16:03:00+00:00,136853405,136780505,0,65.27.230.154,Capitalism,
2007-10-29T13:36:18+00:00,167835703,167835665,0,ClueBot,Capitalism,"Reverting possible vandalism by [[Special:Contributions/72.230.119.73]] to version by WJBscribe.  If this is a mistake, [[User:ClueBot/FalsePositives|report it]].  Thanks, [[User:ClueBot|ClueBot]]. (45800) (Bot)"
2006-09-05T04:18:17+00:00,73885130,73869140,0,Ultramarine,Capitalism,/* Proponents of capitalism */ clarified
2008-10-01T15:56:46+00:00,242270755,242270687,0,AlexiusHoratius,Capitalism,Reverted edits by [[Special:Contributions/B-Dobbs|B-Dobbs]] ([[User talk:B-Dobbs|talk]]) to last version by Barrylb
2007-07-22T02:09:09+00:00,146234962,146228698,0,Jacob Haller,Capitalism,/* Critics of capitalism */
2009-07-05T22:32:36+00:00,300486937,300480518,0,Vision Thing,Capitalism,[[WP:UNDO|Undid]] revision 300480518 by [[Special:Contributions/189.35.15.59|189.35.15.59]] ([[User talk:189.35.15.59|talk]])
2007-03-01T22:15:05+00:00,111927755,111925942,0,65.143.17.148,Capitalism,Expansion of the Definition of Capitalism
2009-02-10T18:53:46+00:00,269821535,269816057,0,VoluntarySlave,Capitalism,revert edit that rendered the passage non-sensical
2010-01-22T10:32:52+00:00,339323636,339323332,0,Wine Guy,Capitalism,Reverted edits by [[Special:Contributions/80.62.237.6|80.62.237.6]] to last version by The Thing That Should Not Be
2006-11-23T06:03:06+00:00,89603333,89603291,0,172,Capitalism,/* Critics of capitalism */
2006-06-24T15:49:51+00:00,60348223,60325036,0,Fourthords,Capitalism,clean up  using [[Wikipedia:AutoWikiBrowser|AWB]]
2009-02-25T03:40:50+00:00,273114381,273113388,0,Soxwon,Capitalism,
2008-04-17T21:10:50+00:00,206334410,206333960,0,JNW,Capitalism,rv further
2010-01-04T23:44:52+00:00,335901487,335547867,0,LilHelpa,Capitalism,/* History */General fixes and [[WP:AWB/T|Typo fixing]] using [[Project:AWB]]
2006-06-30T23:11:45+00:00,61457126,61439354,0,172,Capitalism,
2009-05-22T09:55:14+00:00,291583681,291236559,0,MerlLinkBot,Capitalism,Bot: replacing dead link www.whitehouse.gov with georgewbush-whitehouse.archives.gov
2007-04-16T23:50:00+00:00,123391359,123361833,0,Ultramarine,Capitalism,rv personal essay
2007-03-16T18:04:47+00:00,115604740,115604455,0,BazookaJoe,Capitalism,Reverted 1 edit by [[Special:Contributions/169.204.229.142|169.204.229.142]]  to last revision by  [[User:BazookaJoe|BazookaJoe]]. using [[WP:TWINKLE|TW]]
2008-10-04T01:10:57+00:00,242871773,242871485,0,Volunteer Marek,Capitalism,just reverting to last unvandalized version by Alexius Horatius
2006-11-16T22:13:12+00:00,88293445,88285355,0,Vision Thing,Capitalism,"Lulu's comments were answered, and he hasn't made any new ones"
2008-12-26T03:13:57+00:00,260121709,260120945,0,207.118.232.73,Capitalism,
2006-07-18T20:24:54+00:00,64530856,64530343,0,Lulu of the Lotus-Eaters,Capitalism,"Marxist comment on boom-and-bust certainly relevant (though definitely Soviet claim is ""allegedly"")"
2009-08-08T19:38:59+00:00,306844766,306844617,0,Octoghlon,Capitalism,/* See also */ Tax topic - no
2007-05-22T03:54:07+00:00,132603570,132591833,0,Grant65,Capitalism,/* Marxian political economy */ added point made by De Ste Croix and others about cap role when co-existent with non-cap economies
2007-03-31T08:41:17+00:00,119230633,119220352,0,FlaBot,Capitalism,robot  Adding: [[el:Καπιταλισμός]]
2008-07-31T18:29:16+00:00,229065498,229026570,0,Richard Blatant,Capitalism,
2009-01-23T22:30:06+00:00,266002226,266001796,0,72.76.143.94,Capitalism,
2008-04-07T20:57:42+00:00,204070104,203946189,0,Vision Thing,Capitalism,[[WP:UNDO|Undid]] revision 203946189 by [[Special:Contributions/86.153.103.64|86.153.103.64]] ([[User talk:86.153.103.64|talk]])
2010-01-03T00:29:43+00:00,335547867,335382358,0,Xqbot,Capitalism,robot Adding: [[mn:Капитализм]]
2007-05-23T09:05:59+00:00,132890865,132889935,0,Grant65,Capitalism,"rm mergefrom tag [no apparent interest]/changed ""Perspectives..."" section title to ""Definitions of"""
2007-10-23T19:16:23+00:00,166577710,166576608,0,Max rspct,Capitalism,Revert to revision 166575920 dated 2007-10-23 19:08:49 by Nburden using [[:en:Wikipedia:Tools/Navigation_popups|popups]]
2007-06-13T19:53:37+00:00,137972143,137971869,0,Ofthe1780s,Capitalism,/* Critics of capitalism */ fix link
2009-02-13T19:03:05+00:00,270499589,270499254,0,Versus22,Capitalism,Reverted 7 edits by [[Special:Contributions/98.175.169.114|98.175.169.114]]; Rvv unexplained removal of content. (using [[WP:TWINKLE|Twinkle]])
2009-05-20T19:16:26+00:00,291236559,291227362,0,Lapsed Pacifist,Capitalism,
2007-11-23T20:39:54+00:00,173343879,173343801,0,Oxymoron83,Capitalism,Reverted edits by [[Special:Contributions/76.68.37.168|76.68.37.168]] ([[User talk:76.68.37.168|talk]]) to last version by Bobo192
2007-12-15T17:13:00+00:00,178100538,178035605,0,68.180.51.182,Capitalism,/* Perspectives on the characteristics of capitalism */
2006-10-25T00:16:48+00:00,83535189,83535146,0,Omicronpersei8,Capitalism,Reverted edits by [[Special:Contributions/207.161.31.89|207.161.31.89]] ([[User talk:207.161.31.89|talk]]) to version 83499289 by Lucasbfr using [[WP:SNIPE|VS]]
2007-05-14T16:17:06+00:00,130806199,130803402,0,In Capitalism We Trust,Capitalism,usually?  always.
2009-04-20T21:45:17+00:00,285104283,285099737,0,Soxwon,Capitalism,[[WP:UNDO|Undid]] revision 285099737 by [[Special:Contributions/JT102592|JT102592]] ([[User talk:JT102592|talk]]) Need references
2008-05-25T09:11:12+00:00,214796736,214796380,0,Andy Marchbanks,Capitalism,/* State Capitalism */
2007-11-02T06:23:04+00:00,168679244,168666230,0,24.82.146.103,Capitalism,/* Perspectives on the characteristics of capitalism */
2009-03-23T16:21:45+00:00,279174054,279173815,0,Soxwon,Capitalism,[[WP:UNDO|Undid]] revision 279173815 by [[Special:Contributions/76.216.132.120|76.216.132.120]] ([[User talk:76.216.132.120|talk]])
2007-06-20T17:45:27+00:00,139470083,139463417,0,Vision Thing,Capitalism,this paragraph is superfluous and it gives undue weight to Sarkar
2009-04-16T03:03:57+00:00,284133146,284132614,0,Wolfrock,Capitalism,Reverted 1 edit by [[Special:Contributions/72.178.98.102|72.178.98.102]]; Test?. ([[WP:TW|TW]])
2006-07-27T05:06:18+00:00,66102613,66101479,0,The Ungovernable Force,Capitalism,that section wasn't a criticism of capitalism. It belongs there with other common perspectives of what capitalism is.
2007-02-12T14:17:04+00:00,107560976,107560911,0,In Capitalism We Trust,Capitalism,/* Finance capitalism and monopoly capitalism */
2009-11-04T14:21:04+00:00,323893266,323862584,0,212.15.169.34,Capitalism,External link
2009-01-22T16:57:46+00:00,265733906,265731787,0,Rich Farmbrough,Capitalism,Reverted edits by [[Special:Contributions/204.113.72.5|204.113.72.5]] to last version by ClueBot ([[WP:HG|HG]])
2006-10-05T19:15:22+00:00,79700518,79658243,0,Hires an editor,Capitalism,rv to include etymology
2009-03-22T19:27:48+00:00,278993920,278872254,0,CommonsDelinker,Capitalism,"Removing ""MiltonFriedman2.JPG"", it has been deleted from Commons by [[commons:User:Tom|Tom]] because: [[commons:COM:FS|Missing essential information: source, license and/or permission]]:&#32;much more than 7 days."
2009-06-25T18:54:29+00:00,298607188,298606980,0,Introman,Capitalism,
2008-01-16T00:30:24+00:00,184612645,184534511,0,69.142.222.73,Capitalism,/* Perspectives on the characteristics of capitalism */
2008-08-24T20:24:46+00:00,233992669,233992637,0,ClueBot,Capitalism,"Reverting possible vandalism by [[Special:Contributions/66.32.107.56|66.32.107.56]] to version by Useight. False positive? [[User:ClueBot/FalsePositives|Report it]]. Thanks, [[User:ClueBot]]. (469439) (Bot)"
2007-05-01T21:28:26+00:00,127523665,127523553,0,KillerChihuahua,Capitalism,Reverted edits by [[Special:Contributions/24.161.38.236|24.161.38.236]] ([[User talk:24.161.38.236|talk]]) to last version by Vision Thing
2007-03-24T06:32:20+00:00,117470807,117392532,0,Truth2244,Capitalism,adds land
2008-06-19T14:13:54+00:00,220361709,220361619,0,Advertchaser,Capitalism,/* After the Great Depression */
2007-12-11T08:19:24+00:00,177172117,177161298,0,98.207.215.31,Capitalism,/* Capitalism following the Great Depression */
2009-11-27T01:17:04+00:00,328130533,328129636,0,Soxwon,Capitalism,Reverted 3 edits by [[Special:Contributions/96.26.216.119|96.26.216.119]]; Revert POV commentary. ([[WP:TW|TW]])
2008-01-09T15:19:18+00:00,183183884,183181844,0,72.38.5.132,Capitalism,reverting vandal
2008-04-09T14:50:29+00:00,204460873,204460850,0,ClueBot,Capitalism,"Reverting possible vandalism by [[Special:Contributions/216.248.110.163|216.248.110.163]] to version by 86.153.103.64. False positive? [[User:ClueBot/FalsePositives|Report it]]. Thanks, [[User:ClueBot]]. (313300) (Bot)"
2006-07-16T23:33:05+00:00,64193927,64193184,0,172,Capitalism,/* Finance capitalism and monopoly capitalism */ now mentioned above
2008-01-01T21:12:46+00:00,181446779,181444000,0,Max rspct,Capitalism,/* Proponents of capitalism */ npov
2007-02-25T20:56:29+00:00,110904520,110904254,0,Vision Thing,Capitalism,this is properly sourced
2007-08-19T08:34:20+00:00,152210417,152210119,0,Bongwarrior,Capitalism,Reverted to revision 152158820 by [[User:69.121.205.6|69.121.205.6]]; restored interwikis. using [[WP:TWINKLE|TW]]
2007-03-02T14:24:12+00:00,112074074,112033163,0,JoeCarson,Capitalism,"/* Finance capitalism and monopoly capitalism */ Added explanation and ref for ""movement from laissez-faire"" that was improperly removed."
2006-09-13T19:17:20+00:00,75558131,75166765,0,Rich Farmbrough,Capitalism,ISBN formatting/gen fixes  using [[WP:AWB|AWB]]
2009-10-02T21:56:31+00:00,317538902,317538138,0,Jadon,Capitalism,
2007-12-26T15:33:21+00:00,180258729,180080025,0,RussBot,Capitalism,Robot-assisted fix [[WP:DPL|links to disambiguation page]] Absolutism
2006-10-23T21:51:32+00:00,83291834,83242889,0,Hires an editor,Capitalism,rvv
2006-12-19T02:26:16+00:00,95227024,95177553,0,Perceval,Capitalism,rv further back to catch vandalicious edits
2007-12-23T13:05:03+00:00,179776348,179775736,0,Walton One,Capitalism,correct spelling
2007-07-09T20:29:36+00:00,143573004,143571083,0,Jacob Haller,Capitalism,"Definition is dubious, see Proudhon or Tucker."
2007-08-10T10:18:16+00:00,150368234,150361157,0,Van helsing,Capitalism,Rm EL to piece by [[Colby Buzzell]] (not a specialist on the article subject)
2006-11-06T00:08:31+00:00,85944981,85944940,0,OwenX,Capitalism,Reverted edits by [[Special:Contributions/88.105.88.126|88.105.88.126]] ([[User talk:88.105.88.126|talk]]) to last version by AntiVandalBot
2007-02-05T23:41:53+00:00,105920838,105920737,0,CWY2190,Capitalism,Revert to revision 105901179 dated 2007-02-05 22:17:54 by 75.74.196.215 using [[:en:Wikipedia:Tools/Navigation_popups|popups]]
2008-11-03T21:04:57+00:00,249487950,249487783,0,Jauerback,Capitalism,Reverted edits by [[Special:Contributions/Jauerback|Jauerback]] ([[User talk:Jauerback|talk]]) to last version by Tanthalas39
2009-10-05T15:32:26+00:00,318060096,318008508,0,Lapsed Pacifist,Capitalism,/* Democracy */
2008-06-21T11:21:40+00:00,220747245,220747124,0,SJP,Capitalism,Reverted to revision 220361709 by [[Special:Contributions/Advertchaser|Advertchaser]]; Took out NPOV. ([[WP:TW|TW]])
2008-06-09T16:54:28+00:00,218203753,218203632,0,Ryan032,Capitalism,Reverted edits by [[Special:Contributions/158.59.241.30|158.59.241.30]] to last version by Arienh4 (using [[WP:HG|Huggle]])
2009-12-15T04:01:10+00:00,331745408,331706876,0,69.181.73.156,Capitalism,"Minor- (syntax, punctuation)"
2007-01-27T21:29:49+00:00,103684635,103678559,0,Sundiiiaaa,Capitalism,/* Critics of capitalism */
2009-09-05T10:22:28+00:00,311988330,311839058,0,Xqbot,Capitalism,robot Adding: [[ug:كاپىتالىزم]]
2009-01-21T18:52:48+00:00,265533127,265533037,0,Jake Wartenberg,Capitalism,Reverted edits by [[Special:Contributions/76.7.49.8|76.7.49.8]] to last version by SoxBot III ([[WP:HG|HG]])
2006-08-23T22:07:47+00:00,71471185,71471022,0,MONGO,Capitalism,Protected...hash it out on the talk page
2007-09-28T14:01:13+00:00,160914791,160914719,0,VoABot II,Capitalism,"BOT - Reverted edits by [[Special:contributions/96.4.198.131|96.4.198.131]] {[[User:VoABot_II/Help#Revert_reasons|vandalism]]} to revision #160834972 by ""Daniel J. Leivick""."
2009-04-04T08:25:06+00:00,281663011,281655110,0,EVula,Capitalism,null edit
2007-09-08T06:10:59+00:00,156432485,156432414,0,Brianga,Capitalism,Reverted 1 edit by [[Special:Contributions/124.183.245.166|124.183.245.166]] identified as [[WP:VAND|vandalism]] to last revision by [[User:Daniel J. Leivick|Daniel J. Leivick]]. using [[WP:TW|TW]]
2008-07-20T14:49:09+00:00,226815522,226815324,0,Aaron251,Capitalism,
2009-12-11T07:15:17+00:00,331044768,330913580,0,99.242.87.95,Capitalism,/* Variants of capitalism */
2009-07-16T22:14:37+00:00,302496750,302379566,0,Spylab,Capitalism,[[WP:RBK|Reverted]] edits by [[Special:Contributions/221.120.210.166|221.120.210.166]] ([[User talk:221.120.210.166|talk]]) to last version by 24.68.57.50
2007-03-09T07:31:16+00:00,113784140,113741607,0,Intangible2.0,Capitalism,/* Finance capitalism and monopoly capitalism */ ref
2007-01-31T05:39:32+00:00,104518345,104361922,0,172,Capitalism,rm redundancy and POV
2009-07-20T06:17:14+00:00,303083869,303083441,0,MoralMoney,Capitalism,/* Etymology */
2007-01-05T04:59:24+00:00,98583076,98582981,0,Smbrewer,Capitalism,/* See also */
2006-09-03T17:24:19+00:00,73601236,73601097,0,Lulu of the Lotus-Eaters,Capitalism,rm extra bold
2010-01-28T03:54:50+00:00,340465498,340261672,0,Distal24,Capitalism,Copy edit
2009-10-24T11:16:39+00:00,321738930,321738824,0,83.227.91.128,Capitalism,/* Political freedom */
2006-12-31T18:01:55+00:00,97573549,97418548,0,61.2.65.107,Capitalism,
2007-03-01T16:21:45+00:00,111850631,111850307,0,In Capitalism We Trust,Capitalism,/* Marxian political economy */
2007-04-07T16:28:34+00:00,120995991,120977901,0,59.92.86.120,Capitalism,
2006-09-01T21:23:28+00:00,73292350,73185438,0,Spylab,Capitalism,/* Critics of capitalism */ cleaned up for accuracy and writing style
2009-07-23T21:07:20+00:00,303812050,303765387,0,John Quiggin,Capitalism,/* Etymology and early usage */ restore more complete para
2007-04-15T19:59:10+00:00,123056133,123031378,0,SmackBot,Capitalism,Date/fix the maintenance tags
2008-05-02T23:31:42+00:00,209802739,209802270,0,Daniel J. Leivick,Capitalism,rv vandalism
2008-04-26T04:59:45+00:00,208265138,207718369,0,76.17.120.182,Capitalism,/* Criticism */
2008-12-09T23:17:59+00:00,256932665,256927917,0,Slrubenstein,Capitalism,Reverted 1 edit by [[Special:Contributions/216.74.201.201|216.74.201.201]] identified as [[WP:VAND|vandalism]] to last revision by [[User:Can I touch it?|Can I touch it?]]. using [[WP:TWINKLE|TW]]
2009-04-23T18:15:06+00:00,285695567,285663295,0,173.74.112.199,Capitalism,
2006-06-22T21:47:56+00:00,60068784,60068093,0,Infinity0,Capitalism,/* Capitalist theory */ reinsert a little
2006-07-15T21:36:33+00:00,64016644,64015460,0,Luna Santin,Capitalism,"That is cool, but it's not something an encyclopedia would mention, sorry. Feel free to write an article about the book, if it's notable."
2008-10-24T00:34:55+00:00,247287609,247287581,0,Epbr123,Capitalism,Reverted edits by [[Special:Contributions/75.181.67.202|75.181.67.202]] to last version by Spencer ([[WP:HG|HG]])
2009-10-21T17:19:43+00:00,321226135,321225731,0,70.184.188.227,Capitalism,/* Greco-Roman capitalism */
2006-08-10T14:41:05+00:00,68822443,68817939,0,Red Deathy,Capitalism,Revert to revision 68814300 dated 2006-08-10 13:44:04 by Lulu of the Lotus-Eaters using [[:en:Wikipedia:Tools/Navigation_popups|popups]]
2008-05-04T11:28:14+00:00,210086166,209802739,0,80.213.139.45,Capitalism,/* Perspectives */
2009-12-23T23:28:04+00:00,333675165,333618250,0,71.135.116.109,Capitalism,
2007-06-15T13:21:04+00:00,138345954,138345941,0,MartinBot,Capitalism,BOT - rv [[Special:Contributions/24.47.246.106|24.47.246.106]] ([[User talk:24.47.246.106|talk]]) to last version by STBotD
2007-03-19T00:54:32+00:00,116144227,116143568,0,Exodecai101,Capitalism,
2008-06-15T23:09:24+00:00,219582635,219580697,0,VoluntarySlave,Capitalism,rm stray letter
2006-10-21T19:50:53+00:00,82864235,82831438,0,70.72.176.167,Capitalism,
2007-02-21T20:52:23+00:00,109897481,109890647,0,Vision Thing,Capitalism,rv v
2008-11-14T18:36:43+00:00,251812567,251577931,0,HaroldatState,Capitalism,/* Criticism */  Assumes as fact criticisms of ancillary theories. Doesn't contribute to article.
2008-03-30T09:56:03+00:00,202017627,201961192,0,Olofmbolsson,Capitalism,"/* External links */ removed link, which is more about propaganda than facts."
2009-11-24T07:04:33+00:00,327622773,327424641,0,74.220.75.96,Capitalism,/* Income */
2007-11-12T22:56:04+00:00,171064788,171059476,0,71.106.190.244,Capitalism,
2008-03-13T06:52:36+00:00,197909387,197909278,0,68.98.78.48,Capitalism,/* History */
2007-07-21T04:39:23+00:00,146066275,146061339,0,Jacob Haller,Capitalism,[[WP:UNDO|Undid]] revision 146061339 by [[Special:Contributions/216.139.125.54|216.139.125.54]] ([[User talk:216.139.125.54|talk]])
2008-10-31T22:30:20+00:00,248900346,248900311,0,Renamed user e8LqRIqjJf2zlGDYPSu1aXoc,Capitalism,Reverted edits by [[Special:Contributions/75.171.255.17|75.171.255.17]] to last version by MrOllie ([[WP:HG|HG]])
2007-05-17T14:22:30+00:00,131542397,131542362,0,MartinBot,Capitalism,BOT - rv [[Special:Contributions/204.184.212.253|204.184.212.253]] ([[User talk:204.184.212.253|talk]]) to last version by In Capitalism We Trust
2009-09-18T07:23:16+00:00,314677364,314677204,0,129.130.236.231,Capitalism,/* Islamic capitalism */
2009-04-26T22:43:18+00:00,286317994,286283241,0,PRC 07,Capitalism,/* Weberian political sociology */
2009-04-07T23:10:39+00:00,282443629,282227847,0,65.183.8.194,Capitalism,/* Commercialism */
2009-01-26T00:04:20+00:00,266418030,266415806,0,Nbarth,Capitalism,/* See also */ cols
2007-06-08T23:58:02+00:00,136939798,136936883,0,Ofthe1780s,Capitalism,/* Sarkar's criticism and solution */
2007-05-20T18:50:14+00:00,132266407,132061532,0,Turgrid,Capitalism,Fixed multiple typos
2007-01-28T16:30:57+00:00,103860226,103779208,0,Smee,Category talk:Cults,"/* ""Not the groups themselves"" */"
2007-04-30T04:10:17+00:00,127041835,127041149,0,Antonrojo,Category talk:Cults,"/* ""Not the groups themselves"" */"
2008-05-09T14:45:34+00:00,211265552,167255036,0,Kbdank71,Category talk:Cults,"rm cfd notice, cfd has completed"
2009-08-22T15:57:26+00:00,309440888,259202610,0,John Carter,Category talk:Cults,Cat class for NRMs
2008-12-20T18:39:06+00:00,259202610,249758242,0,NVS(bot),Category talk:Cults,Archiving 20 thread(s) (older than 30d) to [[Category talk:Cults/Archive 1]].
2006-12-03T20:08:09+00:00,91843993,91800597,0,Milomedes,Category talk:Cults,/* [[List of groups referred to as cults]] as group membership criteria? */ reply comment
2008-11-05T00:20:38+00:00,249758899,249758103,0,Cirt,Category:Cults,"Quick-adding category ""New religious movements"" (using [[WP:HOTCAT|HotCat]])"
2006-12-18T11:06:42+00:00,95071434,95061455,0,Daarznieks,Category:Republics,+lv
2008-08-18T19:51:29+00:00,232751643,229389556,0,Soman,Category:Republics,abkhaz iw
2006-07-13T11:37:14+00:00,63584137,62667959,0,Conscious,Category:Cults,cfd closed
2007-11-22T01:44:30+00:00,173024713,173024031,0,Eliyak,Category:Republics,here we go
2009-02-09T20:30:50+00:00,269608334,268794631,0,128.115.27.10,Classical liberalism,/* Overview */ m
2007-02-02T16:41:05+00:00,105120035,105120004,0,Timwi,Classical liberalism,Reverted edits by [[Special:Contributions/206.180.133.78|206.180.133.78]] ([[User talk:206.180.133.78|talk]]) to last version by 24.249.100.227
2008-11-04T23:21:04+00:00,249748691,248692620,0,68.46.139.114,Classical liberalism,/* Disputes over whether social liberalism is derived from classical liberalism */
2009-05-25T04:07:44+00:00,292156004,292118346,0,207.118.251.124,Classical liberalism,
2009-12-11T10:13:29+00:00,331065711,331062513,0,JHP,Classical liberalism,/* External links */ Adding link to Stanford Encyclopedia of Philosophy for an academic view of classical liberalism.
2007-06-14T19:24:15+00:00,138194475,137791415,0,VoluntarySlave,Classical liberalism,"/* ""Classical liberalism"" and libertarianism */ rm OR"
2008-07-01T14:53:59+00:00,222871457,222723283,0,SmackBot,Classical liberalism,Date the maintenance tags or general  fixes
2009-07-13T18:26:27+00:00,301902879,301902209,0,69.152.175.212,Classical liberalism,
2007-12-02T02:17:53+00:00,175180776,174689720,0,81.156.176.209,Classical liberalism,
2007-04-11T12:06:39+00:00,121921629,120798466,0,Rabidcentipede,Classical liberalism,/* Overview */ fixing spelling
2007-09-24T12:31:47+00:00,159999581,156857270,0,SmackBot,Classical liberalism,Date/fix the maintenance tags or gen fixes
2009-05-12T16:19:10+00:00,289490124,289450563,0,Nipisiquit,Classical liberalism,-[[el:Κλασσικός Φιλελευθερισμός]]
2006-12-18T22:23:22+00:00,95181907,93098334,0,All Male Action,Classical liberalism,aka traditional liberalism
2006-09-19T04:36:12+00:00,76527104,76526535,0,Hogeye,Classical liberalism,/* Other classical liberal thinkers */ added Bastiat and Spencer to list
2009-03-14T07:48:10+00:00,277143583,275869774,0,Nvychivwyxan,Classical liberalism,added wikilink and period to the introduction.
2008-02-03T11:05:04+00:00,188779092,188034667,0,DumZiBoT,Classical liberalism,Bot: Converting [[User:DumZiBoT/refLinks|bare references]]
2006-06-16T15:24:02+00:00,58954085,58236644,0,155.84.57.253,Classical liberalism,/* Milton Friedman */ Ludwig von Mises
2007-09-01T02:56:23+00:00,154940050,154938486,0,JettaMann,Classical liberalism,/* Disputes over whether modern liberalism is derived from classical liberalism */  Typo - changed world to word.
2008-01-18T06:22:47+00:00,185155634,185154266,0,Earth,Classical liberalism,[[WP:UNDO|Undid]] revision 185154266 by [[Special:Contributions/66.33.231.182|66.33.231.182]] ([[User talk:66.33.231.182|talk]])
2008-02-06T06:46:05+00:00,189447655,189259059,0,Spangineer,Classical liberalism,citations follow punctuation in lead
2007-11-16T19:53:14+00:00,171946147,171945428,0,Blanchette,Classical liberalism,Add link to Locke.
2007-07-27T21:55:19+00:00,147542332,147541893,0,GreggW,Classical liberalism,/* Disputes over whether modern liberalism is derived from classical liberalism */
2008-11-26T05:39:33+00:00,254172156,254165373,0,Pyroclastic,Classical liberalism,
2006-07-11T02:16:55+00:00,63154420,63153790,0,Kitteneatkitten,Classical liberalism,
2006-08-26T02:49:25+00:00,71933314,71932830,0,C-Liberal,Classical liberalism,
2007-12-02T07:46:54+00:00,175220590,175180776,0,Teppic,Classical liberalism,"Simplification. Removed the qualification ""that the market is seen as being incapable of providing"" because ""the market"" and its relationship to liberlism is not yet established in the introduction."
2009-05-18T21:19:25+00:00,290799558,289490124,0,Logan,Classical liberalism,"/* Classical liberalism, free trade, and world peace */"
2008-05-25T16:44:28+00:00,214859010,213205259,0,Carolmooredc,Classical liberalism,/* External links */ added one
2008-09-09T20:47:01+00:00,237361819,237361681,0,JayJasper,Classical liberalism,white space
2007-03-10T08:57:04+00:00,114028974,112184766,0,Zachorious,Classical liberalism,
2010-02-12T17:43:23+00:00,343576728,343196742,0,71.43.200.194,Classical liberalism,/* Definitions */
2009-03-03T19:50:23+00:00,274750405,274624121,0,JayJasper,Classical liberalism,[[WP:UNDO|Undid]] revision 274624121 by [[Special:Contributions/75.10.148.24|75.10.148.24]] ([[User talk:75.10.148.24|talk]])
2008-12-30T04:46:15+00:00,260818478,260818262,0,Many Heads,Classical liberalism,/* Overview */
2008-12-12T20:49:15+00:00,257563789,257555317,0,Can I touch it?,Classical liberalism,"this is just stupid, it's not sourced, and highlighting anarcho-capitalism is out of order"
2007-04-28T17:47:09+00:00,126666935,126278803,0,Coningsby,Classical liberalism,/* Criticism of neo-classical economists as classical liberals */
2008-12-24T08:55:38+00:00,259881733,259236605,0,24.16.149.0,Classical liberalism,Fixed typo
2008-05-18T07:38:02+00:00,213205259,213073740,0,Dstlascaux,Classical liberalism,The final sentence in the first paragraph is partisan disinformation and should be entirely removed.
2007-09-28T19:42:46+00:00,160976445,159999581,0,Vision Thing,Classical liberalism,wikilink
2007-07-29T19:10:26+00:00,147900729,147569130,0,84.49.89.105,Classical liberalism,"/* Classical liberalism, free trade, and world peace */"
2007-12-07T18:08:24+00:00,176406527,175220590,0,Rjwellings,Classical liberalism,/* External links */
2008-09-27T21:53:48+00:00,241405964,241405690,0,Courtmaster,Classical liberalism,
2009-09-10T18:08:16+00:00,313042220,312776535,0,Rick Norwood,Classical liberalism,Make change discussed in talk.
2008-11-13T12:12:33+00:00,251542640,249748691,0,JoseREMY,Classical liberalism,/* Overview */ link corrected
2008-03-07T04:33:13+00:00,196466236,194445834,0,Operation Spooner,Classical liberalism,"""Classical liberalism"" is not a world term, so how could the article present a ""world view?"" This term is only used in locales where ""liberalism"" is the new socialism.."
2009-10-29T14:20:22+00:00,322734874,322733935,0,Rick Norwood,Classical liberalism,"Follow Wikipedia style sheet in naming centuries, some rewriting."
2006-12-09T05:50:20+00:00,93098334,92756438,0,Kurykh,Classical liberalism,"clean up and [[WP:AWB/T|Typo fixing]] Typos: the the → the, 1980's → 1980s, pursuasion → persuasion, philsophy → philosophy,  using [[Project:AWB|AWB]]"
2008-07-31T17:08:11+00:00,229050396,229049361,0,Meltwaternord,Classical liberalism,removed: to most of the world Classical liberalism is just liberalism. This is largely and American debate.
2008-07-12T17:00:19+00:00,225237997,225231657,0,76.203.3.19,Classical liberalism,"This is a straw-man argument, and is unreferenced. It is removed until it can be made credible. Currently it is juvenile."
2008-12-16T08:59:52+00:00,258323933,258323669,0,Nvychivwyxan,Classical liberalism,"Changed ""Montesquieu"" wikilink to not redirect."
2007-07-16T21:12:37+00:00,145084892,144986926,0,Lapafrax,Classical liberalism,"/* ""Classical liberalism"" and libertarianism */"
2009-10-03T21:28:50+00:00,317716733,317715597,0,AnomieBOT,Classical liberalism,"Fixing reference errors and rescuing orphaned refs (""McNeil, William C 2000. p. 284"" from rev 317659106)"
2009-10-28T14:45:47+00:00,322542600,322338519,0,The Four Deuces,Classical liberalism,/* Disputes over whether social liberalism is derived from classical liberalism */ Remove - not relevant to article
2008-04-08T13:08:24+00:00,204205341,202655010,0,Hu12,Classical liberalism,[[WP:UNDO|Undid]] revision 194445834 by [[Special:Contributions/Tang23|Tang23]] ([[User talk:Tang23|talk]])
2006-07-05T22:32:14+00:00,62266256,59464118,0,Jmabel,Classical liberalism,/* John Stuart Mill */
2006-09-26T20:21:57+00:00,77969553,77390551,0,Elendil's Heir,Classical liberalism,
2009-10-02T13:08:41+00:00,317465780,317336837,0,Rick Norwood,Classical liberalism,rv v
2010-02-06T03:46:35+00:00,342230708,342189918,0,SmackBot,Classical liberalism,Date maintenance tags and general fixes: build 398:
2009-07-08T17:25:13+00:00,301025361,301024309,0,76.4.236.189,Classical liberalism,"/* ""Classical liberalism"" and libertarianism */"
2007-03-28T15:42:50+00:00,118535614,117282277,0,61.2.65.74,Classical liberalism,/* External links */
2009-07-23T03:27:40+00:00,303666490,303033609,0,24.62.49.192,Classical liberalism,
2008-08-10T01:44:44+00:00,230925941,230416540,0,71.175.40.231,Classical liberalism,"/* ""Classical liberalism"" and libertarianism */"
2009-03-08T19:47:10+00:00,275869774,275810894,0,Can I touch it?,Classical liberalism,The source says gold standard is essential aspect of classical liberalism. I challenge you to find a classical liberal that was for fiat paper money.
2007-02-17T13:42:22+00:00,108835694,107080570,0,BenAbuyah,Classical liberalism,"Removed spam from ""The free Institute for Economic Research"" (workforall.net)"
2009-12-15T04:48:49+00:00,331751449,331751292,0,JayJasper,Classical liberalism,/* Classical liberalism and libertarianism */ fixed redundant wording
2006-08-26T21:28:22+00:00,72072554,72072497,0,C-Liberal,Classical liberalism,
2007-04-17T09:32:28+00:00,123486036,123482905,0,Haukurth,Classical liberalism,"No, read [[economic liberalism]]"
2007-01-06T01:49:52+00:00,98779958,97071099,0,Draeco,Classical liberalism,"del ""is"""
2008-08-03T03:45:24+00:00,229522159,229521951,0,RotaryAce,Classical liberalism,Reverted edits by [[Special:Contributions/68.62.206.116|68.62.206.116]] to last version by 24.97.6.18 ([[WP:HG|HG]])
2009-06-16T06:02:24+00:00,296700010,295125177,0,CommonsDelinker,Classical liberalism,"Removing ""F_Hayek.jpg"", it has been deleted from Commons by [[commons:User:Tryphon|Tryphon]] because: Per [[commons:Commons:Deletion_requests/File:F_Hayek.jpg]]."
2006-10-26T12:10:33+00:00,83828533,83759026,0,Intangible,Classical liberalism,rv spam
2010-01-27T21:28:46+00:00,340406503,340405406,0,Snowded,Classical liberalism,"take it to the talk page, you are way over the 3RR limit, one more and it gets reported"
2008-07-14T16:38:58+00:00,225623465,225523169,0,SmackBot,Classical liberalism,Date the maintenance tags or general  fixes
2008-08-07T15:00:19+00:00,230416540,229522159,0,CounterEconomics,Classical liberalism,"/* Classical liberalism, free trade, and world peace */"
2007-10-29T01:37:56+00:00,167753597,167165308,0,208.107.170.207,Classical liberalism,/* Origins */ Needs citation
2009-12-24T21:34:43+00:00,333869812,331751449,0,Belovedfreak,Classical liberalism,Disambiguate [[Depression]] to [[Depression (economics)]] using [[:en:Wikipedia:Tools/Navigation_popups|popups]]
2008-07-08T23:42:05+00:00,224468111,224467868,0,DCNanney,Classical liberalism,/* Opposition to classical liberalism */
2008-08-31T14:12:08+00:00,235378984,235239440,0,Valois bourbon,Classical liberalism,/* External links */
2009-02-05T23:24:34+00:00,268794631,268610619,0,71.175.32.169,Classical liberalism,/* External links */ The ILE link has no content. Added LvMI.
2007-05-25T23:38:28+00:00,133528778,133527228,0,Antandrus,Classical liberalism,Reverted edits by [[Special:Contributions/Erus bellum|Erus bellum]] ([[User talk:Erus bellum|talk]]) to last version by Bobo192
2008-06-18T20:21:24+00:00,220215144,220214784,0,JayJasper,Classical liberalism,copyedit
2009-03-19T19:00:28+00:00,278380303,277143583,0,Felisopus,Classical liberalism,/* See also */ Milton Friedman as first?!
2008-08-27T03:39:12+00:00,234494751,234494119,0,JHP,Classical liberalism,/* Disputes over whether social liberalism is derived from classical liberalism */ Fixed missing blockquote.
2007-10-10T13:28:14+00:00,163559709,163478046,0,SmackBot,Classical liberalism,Date/fix the maintenance tags or gen fixes
2007-08-18T21:11:58+00:00,152110378,152107743,0,41.241.66.142,Classical liberalism,too anglophone
2008-10-30T21:25:24+00:00,248692620,247794760,0,Causa sui,Classical liberalism,"rm ""it must be said"", [[WP:PEACOCK|don't peacock your facts]]"
2006-07-28T22:38:41+00:00,66430042,66213725,0,YurikBot,Classical liberalism,robot  Adding: [[pt:Liberalismo clássico]]
2009-01-10T06:11:19+00:00,263128800,262491790,0,Goyaz,Classical liberalism,"/* Classical liberalism, free trade, and world peace */"
2008-07-26T20:34:19+00:00,228065065,228051216,0,68.123.238.140,Classical liberalism,m
2008-09-23T08:52:42+00:00,240398228,240378962,0,Bjenks,Classical liberalism,[[WP:UNDO|Undid]] revision /Pls explain on [[Talk:Classical_liberalism|Talk]] why you don't agree with this contribution
2009-07-29T18:48:42+00:00,304929280,303666490,0,Faulah,Classical liberalism,inserted needed space between Hume and Thomas
2009-03-27T14:03:37+00:00,280009073,278698872,0,RussBot,Collectivism (disambiguation),Robot-assisted [[WP:D|disambiguation]]: State
2009-03-29T03:33:53+00:00,280345814,280130203,0,128.180.205.105,Classical liberalism,
2007-02-14T18:04:08+00:00,108121085,108120612,0,Anarcho-capitalism,Collectivism (disambiguation),/* Criticism of collectivism */
2008-08-02T02:14:37+00:00,229338838,229137589,0,24.97.6.18,Classical liberalism,
2009-01-03T08:36:12+00:00,261636937,258598115,0,Lightbot,Collectivism (disambiguation),Units/dates/other
2006-12-12T00:20:46+00:00,93698492,93572938,0,24.16.149.26,Collectivism (disambiguation),/* Economics */
2007-05-29T03:25:04+00:00,134235338,131900197,0,ThAtSo,Collectivism (disambiguation),/* Criticism of collectivism */ capital O Objectivism
2008-09-03T09:12:49+00:00,235992894,235992872,0,Scholarly,Collectivism (disambiguation),/* Collectivist societies */
2007-06-13T22:59:38+00:00,138013247,137282571,0,Mattmnelson,Collectivism (disambiguation),
2007-12-13T04:36:08+00:00,177592586,177283787,0,190.40.71.16,Collectivism (disambiguation),Removed a reference to Jews which seems to have nothing to do with the article.
2007-11-14T11:54:42+00:00,171416090,170840238,0,DorganBot,Collectivism (disambiguation),robot  Adding: [[hu:Kollektivizmus]]
2009-12-26T23:40:12+00:00,334166818,329836216,0,TobeBot,Collectivism (disambiguation),robot Adding: [[gl:Colectivismo]]
2009-07-24T20:09:46+00:00,303999148,303999015,0,65.216.227.186,Collectivism (disambiguation),/* Collectivist societies */
2007-10-25T20:37:37+00:00,167061098,167035086,0,Liftarn,Collectivism (disambiguation),/* Politics */
2009-03-02T01:26:25+00:00,274305541,273834839,0,SmackBot,Collectivism (disambiguation),Date maintenance tags and general  fixes
2009-05-29T12:56:55+00:00,293087338,291890543,0,209.213.84.10,Collectivism (disambiguation),/* Economics */
2010-01-25T13:44:39+00:00,339921306,338898993,0,85.186.117.138,Collectivism (disambiguation),/* Criticism of collectivism */
2008-05-06T23:53:46+00:00,210691057,210690935,0,96.232.59.159,Collectivism (disambiguation),
2008-12-17T16:41:27+00:00,258598115,256913495,0,194.200.145.5,Collectivism (disambiguation),/* Politics */  - Removed claim that Hegel was a socialist
2007-06-20T18:31:07+00:00,139479356,139352054,0,Vision Thing,Collectivism (disambiguation),rv v
2006-08-24T16:17:16+00:00,71620274,71475703,0,Vision Thing,Collectivism (disambiguation),typology deserves its own section and additional information won't be added if section isn't there
2008-10-02T01:21:03+00:00,242390079,241540155,0,David Delony,Collectivism (disambiguation),/* Criticism of collectivism */ Reworded 1st two sentences and added links.
2006-11-14T03:05:47+00:00,87681663,87537711,0,Nikodemos,Collectivism (disambiguation),"/* Typology */ the paper specifically says ""right-wing"""
2009-02-01T17:28:43+00:00,267859244,266400149,0,24.63.35.201,Collectivism (disambiguation),
2007-07-25T05:22:05+00:00,146930478,145512313,0,Amcalabrese,Collectivism (disambiguation),/* Criticism of collectivism */
2007-07-04T17:55:20+00:00,142498246,142498169,0,Jonathan Drain,Collectivism (disambiguation),/* Criticism of collectivism */
2009-12-05T08:20:49+00:00,329836216,326975079,0,24.5.220.30,Collectivism (disambiguation),
2008-05-03T08:27:10+00:00,209868256,208339104,0,Capedia,Collectivism (disambiguation),/* Typology */
2006-11-20T01:24:32+00:00,88918010,88917654,0,Dtobias,Collectivism (disambiguation),/* Politics */
2007-07-16T20:59:15+00:00,145081726,144804359,0,DHN-bot~enwiki,Collectivism (disambiguation),robot  Adding: [[vi:Chủ nghĩa tập thể]]
2007-08-03T14:31:24+00:00,148934847,147987305,0,16@r,Collectivism (disambiguation),2otheruses & +wikt
2008-10-28T23:21:06+00:00,248299289,247038194,0,Zazaban,Collectivism (disambiguation),/* Collectivist societies */ Removing ridiculously general statement. Some native american societies formed empires.
2009-07-05T05:51:56+00:00,300357027,300356721,0,Bowei Huang 2,Collectivism (disambiguation),
2006-07-09T05:49:27+00:00,62839094,62609200,0,Eskimbot,Collectivism (disambiguation),robot  Adding: [[sr:Колективизам]]
2010-02-07T14:35:29+00:00,342488295,340263593,0,JLaTondre,Collectivism (disambiguation),"correct spelling,  using [[Project:AWB|AWB]]"
2009-11-17T15:58:22+00:00,326360791,325468619,0,Barotoa,Collectivism (disambiguation),Copy edit
2008-06-05T07:24:49+00:00,217258053,216932274,0,Cielomobile,Collectivism (disambiguation),"/* Criticism of collectivism */ removed ""Leon Czolgosz who assassinated President McKinley..."" - irrelevant"
2008-01-11T19:00:57+00:00,183682060,183670374,0,Wknight94,Collectivism (disambiguation),Reverted edits by [[Special:Contributions/207.235.176.127|207.235.176.127]] ([[User talk:207.235.176.127|talk]]) to last version by Malik Shabazz
2006-10-06T13:53:07+00:00,79844154,79013692,0,Ktsquare,Collectivism (disambiguation),
2006-08-05T01:10:32+00:00,67743642,0,0,Koavf,Controlled market,Redirecting to [[Planned economy]]
2007-01-17T07:59:49+00:00,101286070,101263838,0,Red Deathy,Controlled market,"I was unable to find any citations or uses of this term on various searches, seems like a synonym to me, or at least a variation of economic planning which maybe deserves a para there."
2009-09-01T20:11:59+00:00,311337392,101286070,0,Introman,Controlled market,directing to regulated market
2007-01-16T05:03:19+00:00,101039306,100295731,0,Improper Bostonian,Corporate capitalism,collective ownership
2009-04-21T03:14:04+00:00,285158389,285157848,0,Harelx,Corporate capitalism,/* See also */
2010-01-03T14:32:11+00:00,335636383,335635195,0,Skomorokh,Corporate capitalism,"revert unexplained removal of sourced, relevant content"
2009-06-17T05:59:28+00:00,296905319,290070927,0,Stars4change,Corporate capitalism,/* Books */
2008-01-12T02:23:47+00:00,183764431,178011012,0,83.253.16.217,Corporate capitalism,/* In economics */
2006-12-08T05:01:54+00:00,92865608,92849682,0,Improper Bostonian,Corporate capitalism,
2008-10-21T02:32:03+00:00,246642006,245800740,0,Agorist,Corporate capitalism,
2008-07-30T07:00:25+00:00,228763032,227748526,0,Severo,Corporate capitalism,"[[Wikipedia:WikiProject Stub sorting|stub sorting]], Replaced: {{econ-stub}} → {{econ-theory-stub}}  using [[Project:AutoWikiBrowser|AWB]]"
2009-10-11T01:01:22+00:00,319145103,296905319,0,Spylab,Corporate capitalism,copy edit/cleanup
2006-05-06T07:49:08+00:00,51804354,46703846,0,88.152.171.254,Corporate capitalism,
2009-05-15T10:58:11+00:00,290070927,290070904,0,Landon1980,Corporate capitalism,Reverted edits by [[Special:Contributions/41.245.152.196|41.245.152.196]] to last revision by Harel ([[WP:HG|HG]])
2007-08-22T00:28:38+00:00,152809378,152803245,0,Haemo,Corporate capitalism,appears to have context
2008-06-11T11:44:54+00:00,218607463,218603564,0,Kotniski,Corporation,rv unsourced and unclear claim
2009-02-27T22:10:48+00:00,273744922,266018706,0,Gregbard,Corporate capitalism,corporatism
2009-12-05T04:38:27+00:00,329811507,329620603,0,Coolcaesar,Corporation,/* Naming */ Fixing vandalism (isn't anyone paying attention?!)
2009-12-03T14:13:58+00:00,329457063,329456013,0,66.108.243.166,Corporatism,/* See also */
2006-08-16T11:31:11+00:00,69995366,69786612,0,71.83.248.178,Corporation,"A corp is not a person, but does share some legal similarities. See http://www.investorwords.com/1140/corporation.html"
2009-10-28T19:31:07+00:00,322589866,320414675,0,Professor Todd,Corporation,/* Ownership and control */
2009-06-15T21:41:17+00:00,296628777,296291142,0,Gregbard,Corporatism,/* External links */organized under [:Category:Theories]] using [[Project:AutoWikiBrowser|AWB]]
2009-11-23T00:59:02+00:00,327385258,327384806,0,167.206.233.254,Corporatism,
2006-09-01T01:36:13+00:00,73140757,73082894,0,Cberlet,Corporatism,Revert misleading deletions that undercut reader understanding
2009-07-30T21:56:07+00:00,305159636,304392053,0,RibotBOT,Corporatism,robot Adding: [[tr:Korporatizm]]
2009-09-27T02:40:50+00:00,316415184,316250609,0,174.106.70.107,Corporatism,/* Fascism and corporatism */
2006-10-07T15:10:42+00:00,80035399,79919293,0,Timeshifter,Corporatism,reverted anonymous deletions of 24.119.110.242
2009-04-28T03:51:18+00:00,286581712,286530717,0,Lastdescent,Corporatism,Put State and Tory corporatism back into article
2008-05-30T18:23:23+00:00,216015719,212781333,0,78.20.133.39,Corporatism,/* In social science */
2006-12-15T02:06:40+00:00,94422595,94372762,0,Timeshifter,Corporatism,/* Accusations of American corporatism */ Wikilink to [[The New Deal and corporatism]]
2009-06-02T06:56:48+00:00,293892280,292365805,0,Ingolfson,Corporatism,Some nonexistent of unclear/irrelevant see also's removed
2006-06-10T17:47:14+00:00,57902371,56939361,0,Netage,Corporatism,/* External links */
2006-10-29T01:34:06+00:00,84340733,84340655,0,Nikodemos,Corporatism,
2009-01-12T17:49:20+00:00,263622240,263622199,0,Cureden,Corporatism,Reverted edits by [[Special:Contributions/71.39.130.166|71.39.130.166]] to last version by Alansohn ([[WP:HG|HG]])
2007-07-31T19:42:49+00:00,148339756,148338937,0,GreggW,Corporatism,
2006-12-10T06:36:24+00:00,93319176,92085466,0,Kurykh,Corporatism,"clean up Typos: italian → Italian,  using [[Project:AWB|AWB]]"
2009-08-24T20:03:16+00:00,309839810,309782768,0,Timeshifter,Corporatism,Moved one section.
2007-02-15T18:37:43+00:00,108383814,108209349,0,OwenBlacker,Corporatism,/* Classical theoretical origins */ Italicised names of [[encyclical]]s; corrected spelling of [[trades union]]; amended hyperlinking
2007-05-08T21:05:26+00:00,129348153,127450403,0,Savidan,Corporatism,add ital lang link
2008-04-15T23:49:12+00:00,205907096,205797608,0,195.137.67.222,Corporatism,"Changed 'unelected boobs' to 'unelect bodies', due to the context."
2007-10-03T13:12:58+00:00,162006044,161996514,0,Timeshifter,Corporatism,[[WP:UNDO|Undid]] revision 161996514 by [[Special:Contributions/Gregbard|Gregbard]] ([[User talk:Gregbard|talk]]). Removed redlink
2008-03-14T00:21:38+00:00,198086439,198051248,0,Timeshifter,Corporatism,[[WP:UNDO|Undid]] revision 197992570 by [[Special:Contributions/71.98.95.42|71.98.95.42]] ([[User talk:71.98.95.42|talk]])
2009-05-19T21:46:08+00:00,291037247,288553205,0,74.11.250.82,Corporatism,
2008-03-18T06:54:47+00:00,199036007,199035499,0,Timeshifter,Corporatism,/* External links */ Britannica Online Encyclopedia
2008-02-01T22:37:02+00:00,188477521,188159106,0,Timeshifter,Corporatism,grammar
2007-07-13T08:59:31+00:00,144360187,144048606,0,Pexise,Corporatism,
2008-12-15T00:00:52+00:00,258009045,257957875,0,Timeshifter,Corporatism,[[WP:UNDO|Undid]] revision 257957875 by [[Special:Contributions/68.50.43.229|68.50.43.229]] ([[User talk:68.50.43.229|talk]])
2009-02-27T19:42:16+00:00,273715964,273613201,0,ArthurBot,Corporatism,robot  Modifying: [[ko:협동조합주의]]
2008-02-14T22:44:15+00:00,191519025,191467044,0,Timeshifter,Corporatism,Revert.
2009-10-31T23:19:06+00:00,323185046,320963352,0,XGustaX,Corporatism,[[WP:UNDO|Undid]] revision 316415184 by [[Special:Contributions/174.106.70.107|174.106.70.107]] ([[User talk:174.106.70.107|talk]]) rv sources are legitmate
2007-10-13T19:22:32+00:00,164337966,164252375,0,SmackBot,Corporatism,Date/fix the maintenance tags or gen fixes
2007-07-22T17:08:12+00:00,146344627,146271905,0,Timeshifter,Corporatism,revert. Kept spelling corrections
2009-09-10T16:54:32+00:00,313027854,310513460,0,Daniel C,Corporatism,/* Christian corporatism in the Middle Ages */
2009-02-08T12:35:47+00:00,269316619,267820294,0,Tourbillon,Corporatism,
2006-06-25T18:59:09+00:00,60524353,60523429,0,Intangible,Corporatism,link
2009-08-07T10:49:50+00:00,306577548,305159636,0,Nagelfar,Corporatism,/* Fascist corporatism */
2008-06-29T15:08:31+00:00,222474053,222456451,0,SmackBot,Corporatism,Date the maintenance tags or general  fixes
2007-06-13T23:53:51+00:00,138022424,136807850,0,Hisownspace,Corporatism,/* Classical theoretical origins */
2009-05-26T03:57:37+00:00,292365805,292303805,0,Timeshifter,Corporatism,/* Fascism and corporatism */ spelling
2008-08-01T15:50:16+00:00,229243574,227974713,0,DumZiBoT,Corporatism,"Bot: Converting bare references, using ref names to avoid duplicates, see [[User:DumZiBoT/refLinks|FAQ]]"
2007-04-19T21:50:12+00:00,124196705,124101404,0,Cberlet,Corporatism,Revert: already too much uncited material
2008-11-25T19:58:57+00:00,254074965,253943040,0,Saxonthedog,Corporatism,/* Corporatism and fascism */
2008-08-20T13:33:39+00:00,233109843,233109750,0,Spylab,Corporatism,/* Criticism of corporatism */ deleted hidden message that no longer applies
2008-01-05T14:20:25+00:00,182306878,182306738,0,AlphaEta,Corporatism,[[War theory]] has been deleted.
2009-12-28T01:47:41+00:00,334423628,334423527,0,Theelf29,Corporatism,"/* Freiburg meeting, Rerum Novarum and Christian Democracy */"
2006-12-20T06:03:41+00:00,95467211,95400251,0,Nikodemos,Corporatism,"This seems more likely; either way, the statement is uncited"
2006-07-10T12:59:15+00:00,63038018,62943093,0,Cberlet,Corporatism,Revert: Well-established facts should not be deleted
2007-05-09T07:58:12+00:00,129464004,129348153,0,Wassermann~enwiki,Corporatism,[[Category:Isms]]
2007-07-11T21:18:36+00:00,144048606,143509752,0,24.138.10.21,Corporatism,/* Corporatism and Fascism */
2007-04-02T18:16:27+00:00,119771809,117283343,0,Roboto de Ajvol,Corporatism,robot  Adding: [[ru:Корпоративизм]]
2007-06-08T11:11:48+00:00,136807850,136787691,0,Timeshifter,Corporatism,revert
2008-09-21T14:58:04+00:00,240008325,239155211,0,Rjwilmsi,Corporatism,[[User:Rjwilmsi#Other_fixes|gen fixes]] + apply {{tl|lang}} templates  using [[Project:AutoWikiBrowser|AWB]]
2007-09-18T09:45:21+00:00,158690025,158617758,0,Timeshifter,Corporatism,Revert. None of the links go to the source of the George Orwell claim.
2008-03-03T08:01:56+00:00,195511766,195432920,0,Timeshifter,Corporatism,/* Classical theoretical origins */ Reference link details.
2009-01-24T23:46:27+00:00,266209298,266007071,0,Hede2000,Corporatism,+da:
2010-01-28T01:47:13+00:00,340448824,340442950,0,North Shoreman,Corporatism,[[WP:UNDO|Undid]] revision 340442950 by [[Special:Contributions/159.250.66.125|159.250.66.125]] ([[User talk:159.250.66.125|talk]])
2007-02-23T06:24:35+00:00,110265686,110016799,0,Smack,Corporatism,Disambiguate [[Industrial]] to [[industry]] using [[:en:Wikipedia:Tools/Navigation_popups|popups]]
2007-08-29T13:30:45+00:00,154382276,150164579,0,Lightmouse,Corporatism,Gen fixes
2007-05-28T18:10:49+00:00,134124019,134123309,0,Hairchrm,Corporatism,rv
2008-08-17T23:07:54+00:00,232574109,232567148,0,Timeshifter,Corporatism,[[WP:UNDO|Undid]] revision 232567148 by [[Special:Contributions/137.131.130.84|137.131.130.84]] ([[User talk:137.131.130.84|talk]])
2009-07-18T19:51:06+00:00,302823069,302441214,0,Future Perfect at Sunrise,Corporatism,Disambiguating [[Absolutism]] to [[[[Autocracy|absolutist]]]]
2007-11-17T23:28:52+00:00,172172681,171515716,0,Dsp13,Corporatism,/* Russian corporatism */ disambig link
2009-04-14T16:42:11+00:00,283809649,283809383,0,PhilLiberty,Corporatism,
2008-09-13T19:42:39+00:00,238203173,235547780,0,194.125.117.252,Corporatism,/* In social science */ correcting
2010-01-07T19:50:32+00:00,336456263,336455982,0,R-41,Corporatism,/* See also */ Removing another term that appears to be referred to the pejorative and inaccurate use of the term corporatism
2008-12-02T14:22:53+00:00,255420100,254074965,0,Alexbot,Corporatism,robot  Adding: [[ko:코포라티즘]]
2006-09-12T10:13:06+00:00,75264473,73140757,0,Spespatriae,Corporatism,/* Neo-corporatism */
2008-08-29T16:57:29+00:00,235018481,234822373,0,151.21.210.116,Corporatism,/* See also */
2006-10-29T16:50:28+00:00,84442582,84384432,0,Nikodemos,Corporatism,"/* Free Market criticisms */ very well, I will start a discussion about it and make my case; please comment on the Talk page"
2009-06-26T15:47:48+00:00,298770071,298769897,0,R-41,Corporatism,
2008-05-16T06:09:21+00:00,212781333,212780346,0,Jonovision,Corporatism,removed unreferenced material
2007-05-23T15:08:11+00:00,132943957,132245737,0,Undercooked,Corporatism,/* Criticism of Corporatism */
2009-11-02T16:04:40+00:00,323488658,323185046,0,74.74.73.128,Corporatism,
2008-02-05T15:38:37+00:00,189272687,189269886,0,64.180.222.133,Corporatism,+neocorporatism
2009-10-20T07:33:20+00:00,320963352,320963298,0,24.174.82.195,Corporatism,
2009-04-24T13:54:40+00:00,285854449,284638785,0,Nagelfar,Corporatism,/* See also */ Labour council
2008-04-09T16:42:21+00:00,204483791,204362793,0,Timeshifter,Corporatism,[[WP:UNDO|Undid]] revision 204362793 by [[Special:Contributions/24.16.175.71|24.16.175.71]] ([[User talk:24.16.175.71|talk]])
2006-08-04T21:11:05+00:00,67708658,67543001,0,206.148.148.196,Corporatism,/* Corporatism and Fascism */
2008-01-25T13:45:24+00:00,186807799,186739574,0,Timeshifter,Corporatism,[[WP:UNDO|Undid]] revision 186739574 by [[Special:Contributions/137.131.130.84|137.131.130.84]] ([[User talk:137.131.130.84|talk]])
2008-11-01T11:52:57+00:00,248981834,248747925,0,Gaius Cornelius,Corporatism,Tidy references and other fixes  using [[Project:AutoWikiBrowser|AWB]]
2007-06-22T05:11:37+00:00,139829210,139635398,0,Aquillion,Corporatism,rm. quote.  One person's quote does not illustrate or significantly describe larger popular usage.
2010-01-23T06:27:47+00:00,339491952,339489099,0,R-41,Corporatism,/* Community-based corporatism */
2009-11-13T22:14:04+00:00,325696832,325367353,0,Dfacedan,Corporatism,
2009-02-21T18:41:26+00:00,272311650,272311442,0,T@nn,Corporatism,Commenting out reference until bug is fixed
2007-01-27T22:37:54+00:00,103698839,103698065,0,SMcCandlish,Corporatism,/* Criticism of Corporatism */ Made a ref. citation more specific.
2006-08-24T09:44:53+00:00,71565593,71419232,0,Timeshifter,Corporatism,/* Free Market criticisms */  Supreme Court determines constitutionality.
2008-09-01T08:02:40+00:00,235547780,235390703,0,Timeshifter,Corporatism,"Revert. Made more sense the way it was before. Removed ""left"" and ""right""- wing categories"
2007-12-15T04:55:24+00:00,178024507,174576708,0,75.61.132.161,Corporatism,it's ---> its
2007-03-23T14:00:42+00:00,117283343,117279656,0,Timeshifter,Corporatism,revert vandalism. New account is pasting in same meaningless code on many pages. Reported it to [[Wikipedia:Administrator intervention against vandalism]]
2009-03-31T16:57:54+00:00,280893003,280892418,0,208.63.124.4,Corporatism,/* Criticism of corporatism */
2006-11-15T19:56:40+00:00,88044853,87720709,0,TDC,Corporatism,"/* Free Market criticisms */ After reviewing Talk, I don’t think the factual accuracy is disputed, only the relevance"
2007-08-09T11:58:55+00:00,150164579,150164553,0,DerHexer,Corporatism,Reverted edits by [[Special:Contributions/80.195.218.146|80.195.218.146]] ([[User talk:80.195.218.146|talk]]) to last version by GreggW
2007-05-15T04:20:47+00:00,130960044,130908890,0,Timeshifter,Corporatism,"Article has footnoted reference section. Banner said ""This article or section does not cite any references or sources."" Please find tag for better banner."
2009-03-05T01:37:49+00:00,275066782,275056630,0,Gregbard,Corporatism,expand a more general definition
2008-02-17T23:25:25+00:00,192169236,191519025,0,Filippowiki,Corporatism,
2006-09-28T18:31:08+00:00,78346521,75264473,0,Bluebot,Corporatism,Unicodifying
2010-02-13T05:21:24+00:00,343675482,343590956,0,Bearcat,Corporatism,"what additional categories does it ""need""?"
2007-09-11T09:39:45+00:00,157121002,154382276,0,Crònica~enwiki,Corporatism,
2006-12-04T22:09:51+00:00,92085466,91949605,0,Timeshifter,Corporatism,"Ruadh, you did not discuss anything yourself on the talk page. Please add to the discussion first before making such a major change as deleting a whole section."
2007-05-20T17:02:52+00:00,132245737,131809824,0,Astruc,Corporatism,"edits; one ""fact"" is enough"
2008-02-20T00:55:55+00:00,192694678,192694474,0,98.204.136.235,Corporatism,/* External links */
2009-11-18T02:11:37+00:00,326459591,325696832,0,R-41,Corporatism,"Removing vandalism by an anonymous user. Nowhere in the referenced source does it mention ""pharmaceutical"" groups or ""insurance"" groups"
2009-05-07T21:27:08+00:00,288553205,286581712,0,192.12.88.10,Corporatism,
2009-07-05T03:35:15+00:00,300344901,300344813,0,R-41,Corporatism,"Not just economic systems, but political systems as well"
2009-04-08T05:10:15+00:00,282496445,282494430,0,Qvidproqvo,Corporatism,/* Fascism and corporatism */
2007-05-01T16:22:55+00:00,127450403,125009325,0,74.132.230.162,Corporatism,/* External links */
2008-04-03T01:33:39+00:00,202945703,202934658,0,Timeshifter,Corporatism,[[WP:UNDO|Undid]] revision 202934658 by [[Special:Contributions/198.190.214.4|198.190.214.4]] ([[User talk:198.190.214.4|talk]])
2010-01-09T23:00:35+00:00,336883735,336882652,0,Timeshifter,Corporatism,"/* On Neo-Corporatism */ Wikilinks, reference details."
2008-08-07T08:10:34+00:00,230363777,230363703,0,Lawrencekhoo,Corporatism,
2008-01-29T16:46:14+00:00,187717205,187628588,0,Timeshifter,Corporatism,[[WP:UNDO|Undid]] revision 187628588 by [[Special:Contributions/71.58.74.31|71.58.74.31]] ([[User talk:71.58.74.31|talk]])
2009-07-16T16:46:57+00:00,302441214,300344901,0,R-41,Corporatism,The issue with the introduction appears to have been resolved.
2009-02-01T13:03:51+00:00,267820294,267819393,0,AnomieBOT,Corporatism,Moving refs out of templates
2006-12-01T13:48:53+00:00,91374690,88044853,0,Int19h,Corporatism,/* Classical theoretical origins */ {{fact}}
2008-02-24T09:16:05+00:00,193667436,193666949,0,Timeshifter,Corporatism,"/* Corporatism and Fascism */ Better sentence: ""However no text written by Mussolini has yet been found with any variation of the alleged quote."""
2006-08-17T19:14:59+00:00,70279869,69265026,0,Banzaimonkey,Corporatism,/* Corporatism and Fascism */
2006-10-15T01:09:00+00:00,81503578,80035399,0,.anacondabot,Corporatism,robot  Adding: [[sk:Korporativizmus]]
2009-11-29T14:28:41+00:00,328587261,327385258,0,70.59.140.179,Corporatism,/* In popular usage */
2007-07-05T21:49:35+00:00,142758362,142755295,0,66.31.47.139,Corporatism,
2008-06-16T03:05:10+00:00,219621172,219597902,0,219.73.25.142,Corporatism,/* See also */
2008-04-27T17:24:17+00:00,208560492,208547891,0,Jonovision,Corporatism,[[WP:UNDO|Undid]] revision 208547891 by [[Special:Contributions/Singwaste|Singwaste]] ([[User talk:Singwaste|talk]]) - New template does not reflect the content of the article
2006-11-02T22:50:46+00:00,85353753,85353653,0,129.65.91.61,Corporatism,
2007-12-26T15:47:42+00:00,180260325,178024507,0,BOTarate,Corporatism,robot  Adding: [[nn:Korporativisme]]
2007-03-06T21:08:34+00:00,113149006,112738165,0,Barticus88,Corporatism,Disambiguate [[Administration#Government]] to [[Public administration]] using [[:en:Wikipedia:Tools/Navigation_popups|popups]]
2009-03-27T19:44:55+00:00,280068124,280009346,0,RussBot,Corporatism,Robot-assisted [[WP:D|disambiguation]]: States
2007-09-08T04:11:24+00:00,156418122,152765665,0,Xmacro,Economic liberalism,/* Decline and revival */
2007-06-19T21:02:46+00:00,139287619,139286834,0,Ohnoitsjamie,Economic liberalism,Reverted edits by [[Special:Contributions/Political Guru|Political Guru]] ([[User talk:Political Guru|talk]]) to last version by 76.29.65.166
2006-09-09T15:24:49+00:00,74726302,73698635,0,151.46.15.76,Economic liberalism,/* Decline and revival */
2007-03-19T23:46:33+00:00,116393387,111531515,0,199.17.84.42,Economic liberalism,
2007-05-04T05:53:07+00:00,128151568,126979991,0,165.228.134.219,Economic liberalism,
2008-10-22T14:50:48+00:00,246955265,246861187,0,JayJasper,Economic liberalism,[[WP:UNDO|Undid]] revision 246861187 by [[Special:Contributions/71.254.177.192|71.254.177.192]] ([[User talk:71.254.177.192|talk]]) rv. good faith edit
2008-04-05T09:49:10+00:00,203489056,201257138,0,71.238.157.6,Economic liberalism,
2009-05-12T12:28:16+00:00,289450680,284530069,0,79.107.46.99,Economic liberalism,
2008-05-20T14:55:51+00:00,213711179,213711144,0,XLinkBot,Economic liberalism,BOT--Reverting edits by [[:en:Special:Contributions/86.7.123.169|86.7.123.169]] to revision 213053624 (\bblogspot\.com)
2009-08-21T00:15:32+00:00,309161328,309117459,0,Introman,Economic liberalism,sourcing
2009-04-17T03:15:05+00:00,284347486,284284505,0,Zazaban,Egoist anarchism,
2007-06-25T07:28:04+00:00,140470934,140432892,0,C mon,Fascism,"issue needs to be debated, appears to be disputed"
2007-04-29T04:47:13+00:00,126788603,126788537,0,Nehrams2020,Fascism,rvv
2007-01-03T19:00:54+00:00,98229112,98229056,0,129.120.71.188,Fascism,/* Differences and similarities with Nazism */
2008-02-20T21:18:50+00:00,192886542,192868998,0,Aecis,Fascism,Reverted edits by [[Special:Contributions/76.28.53.32|76.28.53.32]] ([[User talk:76.28.53.32|talk]]) to last version by 129.112.109.253
2009-05-25T20:36:33+00:00,292291917,292265718,0,Lapsed Pacifist,Fascism,"[[WP:UNDO|Undid]] revision 292265718 by [[Special:Contributions/Collect|Collect]] ([[User talk:Collect|talk]])If you're a Nazi, sure it is"
2007-08-27T21:15:09+00:00,154031565,153893572,0,Drkeithphd,Fascism,/* Fascism and the Protestant churches */
2009-02-27T16:49:07+00:00,273683693,273600699,0,R-41,Fascism,grammar correction
2007-07-01T16:38:40+00:00,141826648,141732297,0,CoJaBo,Fascism,link + typos
2008-09-10T19:20:36+00:00,237554358,237554134,0,Bongwarrior,Fascism,Reverted edits by [[Special:Contributions/Digglet|Digglet]] ([[User talk:Digglet|talk]]) to last version by Mysdaao
2006-09-22T04:14:35+00:00,77114069,77112877,0,Hogeye,Fascism,political and economic fascism; examples
2008-12-10T23:18:28+00:00,257156191,257155920,0,Axeman89,Fascism,/* Notable Fascists */
2006-12-11T08:36:17+00:00,93546697,93520711,0,Billyjoekini,Fascism,"Renamed this section to reflect its opinionated nature and to replace ""sexuality"" with the more accurately phrased ""gender roles""."
2009-03-13T10:26:20+00:00,276944973,276929452,0,Collect,Fascism,/* Portrayals and Visions */ initially
2008-08-04T01:30:41+00:00,229685244,229685177,0,JForget,Fascism,Reverted edits by [[Special:Contributions/99.240.206.92|99.240.206.92]] ([[User talk:99.240.206.92|talk]]) to last version by Rror
2006-08-04T12:30:23+00:00,67624694,67598273,0,Cberlet,Fascism,Revert: Bent - unlike Beckham
2007-03-02T23:35:55+00:00,112196456,112196417,0,Jkelly,Fascism,Reverted edits by [[Special:Contributions/69.47.6.136|69.47.6.136]] ([[User talk:69.47.6.136|talk]]) to last version by DickClarkMises
2007-09-18T11:05:56+00:00,158700087,158698342,0,Liftarn,Fascism,[[WP:UNDO|Undid]] revision 158698342 by [[Special:Contributions/84.190.98.65|84.190.98.65]] ([[User talk:84.190.98.65|talk]])
2008-03-17T00:15:14+00:00,198747868,198746921,0,Spylab,Fascism,Reverted edits by [[Special:Contributions/202.47.114.57|202.47.114.57]] ([[User talk:202.47.114.57|talk]]) to last version by 72.204.185.178
2009-06-06T15:51:09+00:00,294798162,294687788,0,Lapsed Pacifist,Fascism,"/* Abortion, eugenics and euthanasia */"
2008-01-02T01:03:59+00:00,181489537,181442060,0,24.223.198.9,Fascism,"/* The term fascism */ removed non-relevant, non-authoritive reference"
2007-07-30T19:59:37+00:00,148114062,148113707,0,Spylab,Fascism,/* Definitions */ deleted unnecessary extra subheading & moved part of the heading into the Definitions heading
2008-02-24T07:17:55+00:00,193656775,193656721,0,King Lopez,Fascism,Reverted edits by [[Special:Contributions/Kl colonel|Kl colonel]] ([[User talk:Kl colonel|talk]]) to last version by Asteriks
2007-11-16T08:13:50+00:00,171848881,171848822,0,63.162.158.6,Federal Reserve,/* Congress */
2006-11-20T03:30:47+00:00,88939873,88939247,0,Famspear,Federal Reserve,rv to last version by Famspear -- please read the article and the talk page.
2007-10-25T17:18:10+00:00,167019684,166899461,0,140.247.41.52,Federal Reserve,why is that capitalized?
2006-07-03T13:50:53+00:00,61847024,61828033,0,Famspear,Federal Reserve,"Read the article; the banks are privately-owned, not the ""System"""
2009-03-21T22:37:16+00:00,278824482,278821097,0,70.125.108.39,Federal Reserve,
2008-01-18T07:02:31+00:00,185159473,185151519,0,68.125.68.24,Federal Reserve,
2009-09-15T11:54:16+00:00,314086067,314044607,0,Ravensfire,Federal Reserve,Reverted to revision 313880587 by [[Special:Contributions/216.114.210.66|216.114.210.66]]; Fed is both public and private - please discuss on talk page. ([[WP:TW|TW]])
2008-05-19T05:14:10+00:00,213408024,213403242,0,EGeek,Federal Reserve,[[WP:UNDO|Undid]] revision 213403242 by [[Special:Contributions/67.167.90.232|67.167.90.232]] ([[User talk:67.167.90.232|talk]])
2007-07-18T06:04:16+00:00,145384904,145211682,0,Remy B,Federal Reserve,"/* Allegations of conspiracies and secret agendas */ lets keep the descriptions brief, especially when there is a full main article on the film to find this information"
2008-11-12T02:38:54+00:00,251248104,251201238,0,Analoguni,Federal Reserve,"a few fixes, plus added some info on transparency"
2006-11-05T05:01:59+00:00,85792235,85533206,0,209.94.133.111,Federal Reserve,/* Film critiques */
2008-02-29T03:48:26+00:00,194823132,194811354,0,FrankTobia,Federal Reserve,/* Federal funds rate and discount rate */ rework a previous needy edit; still a little clunky though
2009-06-29T20:44:32+00:00,299380270,299380155,0,75.214.22.189,Federal Reserve,/* Criticisms */
2009-04-04T00:36:23+00:00,281606579,281579288,0,Analoguni,Federal Reserve,"/* Independent Federal Agency */ only the board of governors is an agency, but the whole system is independent within government"
2008-02-20T10:02:30+00:00,192769487,192767253,0,Analoguni,Federal Reserve,/* Independent within government */
2008-03-29T03:15:48+00:00,201735922,201582658,0,Chobot,Federal Reserve,robot  Modifying: [[he:פדרל ריזרב]]
2008-07-09T02:19:20+00:00,224491295,224471869,0,Famspear,Federal Reserve,revert the usual tendentious editing. Please read the article and the talk page. We've gone over this a thousand times.
2009-04-06T20:12:13+00:00,282182749,282045472,0,166.35.132.63,Federal Reserve,/* Inflation */
2006-07-12T02:33:17+00:00,63342839,63315540,0,69.243.87.240,Federal Reserve,/* External links */ linkspam removed
2008-12-30T22:51:53+00:00,260973473,260962324,0,69.86.196.184,Federal Reserve,
2008-01-28T13:32:35+00:00,187461234,187453769,0,Ozhiker,Federal Reserve,[[WP:UNDO|Undid]] vandalised revision 187453769 by [[Special:Contributions/74.76.0.109|74.76.0.109]] ([[User talk:74.76.0.109|talk]])
2010-01-23T13:54:05+00:00,339531983,339502983,0,SmackBot,Federal Reserve,"/* Criticisms */Date maintenance tags: build 391:,"
2009-02-19T04:26:39+00:00,271747486,271747463,0,Versus22,Federal Reserve,Reverted edits by [[Special:Contributions/24.235.40.42|24.235.40.42]] to last revision by 70.125.108.39 ([[WP:HG|HG]])
2009-04-04T02:01:09+00:00,281618077,281618021,0,71.175.32.76,Free market,/* See also */
2009-05-05T14:39:34+00:00,288058833,287446268,0,ΙωάννηςΚαραμήτρος,Free market,
2007-03-07T16:45:12+00:00,113345513,113345388,0,Katalaveno,Free market,Reverted 1 edit by [[Special:Contributions/208.22.208.85|208.22.208.85]] ([[User talk:208.22.208.85|talk]]) to last revision (112710447) by RayBirks using [[WP:VPRF|VP]]
2007-07-11T21:33:40+00:00,144051510,143644274,0,65.208.210.97,Free market,/* Legal tender and taxes */
2006-08-14T17:06:56+00:00,69616602,69616198,0,212.2.12.173,Free market,/* Mechanism */
2008-12-19T22:16:09+00:00,259050343,259050323,0,MattieTK,Free market,Reverted edits by [[Special:Contributions/63.229.131.188|63.229.131.188]] to last version by Why Not A Duck ([[WP:HG|HG]])
2006-11-20T19:34:03+00:00,89066285,88554755,0,Ed Poor,Free market,break 1st para into 2 parts
2008-04-15T13:56:48+00:00,205785815,203529552,0,Chessstoria,Free market,+ italian interwiki
2009-09-01T18:35:38+00:00,311321380,311320836,0,Introman,Free market,"doesn't have to be a ""marketplace."" Can be just one market in one commodity."
2009-10-27T08:56:56+00:00,322305857,322305800,0,Amaury,Free market,Reverted 1 edit by [[Special:Contributions/John Asfukzenski|John Asfukzenski]]; Unexplained removal of content.. ([[WP:TW|TW]])
2006-09-29T03:05:55+00:00,78432602,78420352,0,Jmabel,Free market,rm 2 vandalisms
2009-01-14T05:38:45+00:00,263981710,263981372,0,98.207.211.33,Free market,
2006-09-27T01:46:10+00:00,78022516,78021778,0,Grz77,Free market,"Removed a vague and partially false sentence about Asian economies. E.g., Japan never had a ""decade long recession"" in the 1990's. Slow and interrupted growth is not a recession."
2007-10-03T02:46:24+00:00,161935109,161934973,0,124.30.145.33,Free market,
2006-07-06T19:56:11+00:00,62426705,61497712,0,206.111.237.169,Gold standard,
2006-10-18T17:26:05+00:00,82244257,82243704,0,Mwelch,Gold standard,/* The Crisis of the Gold Standard (1914-1935) */ copy edit
2009-03-26T16:44:46+00:00,279825268,279824689,0,Lawrencekhoo,Gold standard,/* Disadvantages */
2007-04-11T03:07:50+00:00,121852395,121610756,0,65.78.212.230,Gold standard,/* Advocates of a renewed gold standard */ Repairing link to disambiguation page - [[Wikipedia:Disambiguation pages with links|You can help!]]
2008-08-03T00:53:22+00:00,229499705,229499684,0,Useight,Gold standard,Reverted edits by [[Special:Contributions/Smutneja|Smutneja]] to last version by 202.128.117.162 ([[WP:HG|HG]])
2006-08-10T20:57:35+00:00,68889538,68745084,0,194.143.173.2,Gold standard,/* External links */
2008-12-01T22:41:12+00:00,255297065,255296868,0,Crosbiesmith,Gold standard,[[WP:UNDO|Undid]] revision 255296868 by [[Special:Contributions/12.188.28.2|12.188.28.2]] ([[User talk:12.188.28.2|talk]])
2009-11-24T20:53:40+00:00,327731388,327594407,0,Kbrose,Gold standard,"/* Gold as a reserve today */ maintain wikilinks, copyedit"
2007-07-21T16:49:43+00:00,146150401,146143446,0,81.224.210.91,Gold standard,/* Return to the gold standard */
2007-06-02T19:37:07+00:00,135379047,135378602,0,Crosbiesmith,Gold standard,"/* Advocates of a renewed gold standard */ Removed oddly formatted, self-referential statement"
2006-06-22T18:45:49+00:00,60039218,60039204,0,Tawkerbot2,Gold standard,BOT - rv [[Special:Contributions/Johnny Vandalcloud|Johnny Vandalcloud]] ([[User talk:Johnny Vandalcloud|talk]]) to last version by Searchme
2008-02-26T07:20:44+00:00,194123694,194104317,0,Gregalton,Gold standard,remove naked opinion
2008-07-11T06:10:04+00:00,224966676,224328082,0,86.145.73.54,Gold standard,Add link
2008-01-15T20:26:57+00:00,184556147,184550973,0,Arthur Rubin,High-frequency Active Auroral Research Program,"violated BLP, without a source; [[WP:UNDO|Undid]] revision 184550973 by [[Special:Contributions/198.150.115.199|198.150.115.199]] ([[User talk:198.150.115.199|talk]])"
2008-11-11T11:49:20+00:00,251082971,250634041,0,115.186.114.186,High-frequency Active Auroral Research Program,/* Ionospheric heating facilities */
2007-12-04T16:30:50+00:00,175726733,175717614,0,Txinviolet,Gold standard,"Fleshed out the ""why gold?"" section to better explain the original motivation and evolution of the gold standard."
2007-07-18T22:19:02+00:00,145534817,144553900,0,82.57.57.128,High-frequency Active Auroral Research Program,/* The HAARP site */
2009-07-13T21:06:03+00:00,301930050,301929093,0,William M. Connolley,High-frequency Active Auroral Research Program,/* Possible Uses */ this is all crap
2007-01-29T19:24:37+00:00,104149177,104148808,0,Anarcho-capitalism,Individualism,/* Individualism and US history */
2008-02-12T05:57:00+00:00,190844081,189807165,0,96.229.146.138,Individualism,
2008-03-12T05:19:21+00:00,197655141,197568343,0,Saulglasman,Individualism,Minor edit: removed irrelevant and slightly misleading phrase.
2006-07-09T05:26:50+00:00,62836930,60254418,0,Crablogger,Individualism,/* External links */
2008-06-30T20:17:51+00:00,222724545,222724430,0,198.61.20.129,Individualism,
2007-06-24T14:34:15+00:00,140308693,139339787,0,89.125.90.41,Individualism,Independent
2009-12-25T02:33:20+00:00,333905152,333896093,0,Zazaban,Individualism,/* Individualism as personal lifestyle */ Returning see also section.
2008-06-17T02:16:45+00:00,219836029,219781705,0,99.235.149.48,Individualism,"/* Political individualism */ that's two verbs, actually"
2006-10-11T03:22:49+00:00,80747408,80747290,0,Intangible,Individualism,/* Political individualism */ rv vandalism
2009-12-21T10:23:51+00:00,333025078,332935699,0,Eduen,Individualist anarchism,"link to article on ""individual"" on wikipedia"
2008-08-09T18:21:25+00:00,230854155,230680641,0,Cast,Individualist anarchism,/* Anarcho-capitalism */  image staggering
2008-06-15T18:20:17+00:00,219535190,219534010,0,Skomorokh,Individualist anarchism,fmt
2006-12-05T06:27:23+00:00,92171308,91213080,0,Eszett,Individualism,
2007-07-18T16:58:06+00:00,145466715,145465778,0,Operation Spooner,Individualist anarchism,"It's not legitimately sourced, that's the problem. It's a web page and it doesn't even mention individualist anarchism."
2009-10-04T12:27:51+00:00,317827387,317793705,0,Lapsed Pacifist,Individualist anarchism,/* American individualist anarchism */
2007-10-02T00:19:12+00:00,161684889,161682750,0,Operation Spooner,Individualist anarchism,/* Historical development */
2008-05-16T13:35:47+00:00,212829348,212807577,0,TheOldJacobite,Individualist anarchism,Rv vandalism.
2009-03-20T01:54:11+00:00,278455577,272867938,0,Download,Individualist anarchism,"cleanup, typos fixed: socalism → socialism using [[Project:AutoWikiBrowser|AWB]]"
2008-09-29T15:01:47+00:00,241780938,241780757,0,Skomorokh,Individualist anarchism,Reverted edits by [[Special:Contributions/207.181.229.38|207.181.229.38]] ([[User talk:207.181.229.38|talk]]) to last version by SmackBot
2010-02-03T07:37:05+00:00,341642894,341642708,0,Eduen,Individualist anarchism,/* Agorism */
2007-10-25T23:12:21+00:00,167094146,166224073,0,BOT-Superzerocool,Individualist anarchism,robot  Modifying: [[pl:Anarchizm indywidualistyczny]]
2009-04-13T06:15:07+00:00,283514009,283468398,0,Libertatia,Individualist anarchism,"Removed details not supported by source. The rest of this is an unsourced assertion in the source, so probably shouldn't be given this weight"
2007-04-23T00:49:25+00:00,125015730,125015525,0,Full Shunyata,Individualist anarchism,
2008-11-20T15:13:07+00:00,252992262,252833547,0,Billinghurst,Individualist anarchism,Disambiguate [[National Portrait Gallery]] to [[National Portrait Gallery (London)]] using [[:en:Wikipedia:Tools/Navigation_popups|popups]]
2007-09-20T23:26:21+00:00,159276424,159262410,0,Operation Spooner,Individualist anarchism,"Removing Gambone, since no reference for him being an individualist anarchist was provided."
2009-10-17T00:41:21+00:00,320320586,320319699,0,Eduen,Individualist anarchism,/* European individualist anarchism */
2006-12-04T05:36:09+00:00,91941662,91941398,0,66.90.73.77,Individualist anarchism,
2006-11-25T17:11:49+00:00,90047490,89712368,0,Anarcho-capitalism,Individualist anarchism,additional source on coming from classical liberalism
2006-07-05T20:32:10+00:00,62245974,62245798,0,AaronS,Individualist anarchism,remove unsourced claims
2009-09-16T01:18:43+00:00,314240011,311376389,0,Skittleys,Individualist anarchism,disambiguated or tagged [[egoism]] using [[Project:AutoWikiBrowser|AWB]]
2009-11-07T21:33:11+00:00,324525607,324525443,0,Eduen,Individualist anarchism,/* Anarcho-naturism */
2006-07-29T22:01:58+00:00,66586077,66571965,0,AaronS,Individualist anarchism,/* Pierre Proudhon */ fix name
2009-01-25T18:05:38+00:00,266350721,266227770,0,PublicSquare,Individualist anarchism,/* External links */
2008-07-24T14:51:56+00:00,227637084,227634135,0,Richard Blatant,Individualist anarchism,/* Max Stirner */ emma goldman
2008-05-09T13:58:34+00:00,211257177,211220772,0,TheOldJacobite,Individualist anarchism,Rv unexplained deletions.
2007-06-27T20:16:55+00:00,141031136,140904523,0,Full Shunyata,Individualist anarchism,
2008-03-18T04:21:15+00:00,199019334,197996760,0,Operation Spooner,Individualist anarchism,/* Max Stirner */ Only limitiation to the rights of the individual is his own power.
2009-11-14T18:03:01+00:00,325829766,324525607,0,Rich Farmbrough,Individualist anarchism,Delink dates ([[WP:MOSUNLINKDATES]]) using [[Project:AutoWikiBrowser|AWB]]
2007-07-06T22:35:15+00:00,142988968,142321045,0,Full Shunyata,Individualist anarchism,"I don't know any free market anti-capitalists who don't consider their philosophy to not be socialistic, no need to be overly politically correct because some POV-pushers don't like the facts"
2009-08-20T04:33:06+00:00,309007321,309006729,0,Rich Farmbrough,Individualist anarchism,sp
2008-11-23T17:40:55+00:00,253623086,252992262,0,Awesomeeconomist,Individualist anarchism,
2008-07-30T12:37:17+00:00,228798981,228798132,0,Skomorokh,Individualist anarchism,/* Overview */ already linked
2009-08-10T07:42:13+00:00,307122492,306251519,0,Edward,Individualist anarchism,link [[libertarian socialism]] using [[User:Edward/Find link|Find link]]
2010-01-02T09:26:08+00:00,335432099,335431737,0,Eduen,Individualist anarchism,/* External links */
2006-09-04T02:02:16+00:00,73677842,73677819,0,Centrx,Individualist anarchism,-sprotected
2009-11-04T10:42:17+00:00,323871907,323871842,0,Eduen,Individualist anarchism,/* European individualist anarchism */
2007-08-07T21:02:01+00:00,149838013,149796269,0,Operation Spooner,Individualist anarchism,"Unless you have a reference that says what the ""more common"" classification is, then you can't state such a thing."
2008-12-16T16:08:59+00:00,258374871,253623086,0,Rjwilmsi,Individualist anarchism,"[[User:Rjwilmsi#Other_fixes|gen fixes]]: (2) fix ref format (1),  using [[Project:AutoWikiBrowser|AWB]]"
2006-10-31T04:51:17+00:00,84777261,84515294,0,Anarcho-capitalism,Individualist anarchism,/* Anarcho-capitalism */ more to quote
2010-01-19T08:51:30+00:00,338720171,338720080,0,Eduen,Individualist anarchism,/* Germany */
2007-12-14T13:09:55+00:00,177871164,177246552,0,Lordmetroid,Individualist anarchism,
2007-08-28T18:14:42+00:00,154216650,154180144,0,12.182.20.132,Individualist anarchism,"/* Criticisms */ Removed ""O RLY?"" in Shaw image caption"
2008-09-01T18:36:33+00:00,235641469,235641042,0,Richard Blatant,Individualist anarchism,"read the article. Spooner and Byington are old individualist anarchists that don't go for ""occupancy and use"". this article is not just about the old invidualist anarchists anyway"
2010-01-15T17:22:11+00:00,338026408,337779992,0,141.163.114.56,Individualist anarchism,/* Overview */
2009-04-26T15:58:06+00:00,286246554,285994258,0,Vision Thing,Individualist anarchism,/* Mutualism */ restoring better sourced version of the section
2008-04-03T17:32:49+00:00,203085562,201307070,0,VolkovBot,Individualist anarchism,robot  Adding: [[eo:Individuisma anarkiismo]]
2007-02-10T23:56:37+00:00,107193963,106049984,0,HarryHenryGebel,Individualist anarchism,
2008-11-04T03:05:00+00:00,249563555,248697520,0,SmackBot,Individualist anarchism,Date maintenance tags and general  fixes
2009-09-02T00:08:05+00:00,311376389,310722576,0,Gregbard,Individualist anarchism,Quick-adding category [[:Category:Individualism|Individualism]] (using [[WP:HOTCAT|HotCat]])
2008-07-16T15:42:36+00:00,226039915,225472694,0,Operation Spooner,Individualist anarchism,/* The American traditions */ Clearer.
2009-12-05T21:53:19+00:00,329941171,329744668,0,TXiKiBoT,Individualist anarchism,robot Adding: [[fi:Individualistinen anarkismi]]
2009-01-30T00:18:08+00:00,267303601,267044367,0,Joel Russ,Karl Hess,Tried to make intro sentences easier to read by shortening (& reorganizing order of his roles).
2007-04-07T06:12:44+00:00,120917199,120913559,0,Fubar Obfusco,L. Ron Hubbard,Justanother has been previously cautioned to focus on contributing well-cited material rather than deleting well-cited material he doesn't like.
2009-08-21T02:45:11+00:00,309180278,309178469,0,Y,L. Ron Hubbard,Office of Naval Intelligence
2009-07-01T23:52:45+00:00,299790858,299069873,0,Nihilo 01,Labor theory of property,
2007-05-18T05:31:54+00:00,131716720,131667823,0,Ryulong,Labor theory of property,Reverted edits by [[Special:Contributions/Crashola|Crashola]] ([[User talk:Crashola|talk]]) to last version by Infinity0
2006-11-16T08:42:14+00:00,88170677,88167820,0,203.213.218.211,Labor theory of value,/* Overview */
2006-07-05T04:14:42+00:00,62130331,62110377,0,Cplot,Labor theory of value,extracted back and forth point-scoring to the talk page to develop a coherent  criticism
2007-04-29T10:33:45+00:00,126828976,126403635,0,Charles Matthews,Labor theory of value,/* The birth of the LTV */ wfy
2007-11-02T18:15:44+00:00,168775721,168721367,0,SteinbDJ,Labor theory of value,Fixing [[Wikipedia:Disambiguation pages with links|links to disambiguation pages]]  using [[Project:AutoWikiBrowser|AWB]]
2006-10-16T11:23:40+00:00,81767165,81745098,0,151.190.254.108,Labor theory of value,Reverting to delete section Occam's Razor
2008-11-17T12:40:28+00:00,252352104,252352028,0,Jagged 85,Labor theory of value,/* The birth of the LTV */
2007-07-27T07:48:03+00:00,147405317,147028509,0,AndySimpson,Labor theory of value,/* Menger's Critique */ link
2006-08-07T12:58:12+00:00,68183217,68049835,0,Twobitsprite,Labor theory of value,less authoritative
2008-02-03T14:39:44+00:00,188806175,188806057,0,80.7.118.45,Labor theory of value,/* Microeconomic Theory */
2008-03-12T16:00:56+00:00,197739915,197737506,0,Artegis,Labor theory of value,grammar clean-up
2009-04-06T16:37:14+00:00,282138593,282137866,0,208.242.58.125,Labor theory of value,/* Definitions of value and labor */
2008-01-15T23:45:26+00:00,184602518,184021479,0,Beno1000,Labor theory of value,/* The birth of the LTV */
2009-12-15T19:59:45+00:00,331863373,331594887,0,Abc10,Labor theory of value,interwiki fi
2007-10-04T20:58:57+00:00,162323127,162322124,0,Jemmy Button,Labor theory of value,/* Menger's Critique */ rephrase
2008-07-31T12:00:59+00:00,228999987,228803517,0,SmackBot,Labor theory of value,Date the maintenance tags or general  fixes
2007-02-12T20:27:37+00:00,107641055,107545295,0,82.35.46.212,Labor theory of value,/* The importance of labor */
2009-01-05T16:39:36+00:00,262114159,261950298,0,RussBot,Labor theory of value,Robot-assisted fix [[WP:DPL|links to disambiguation page]] Capital
2008-04-18T12:06:22+00:00,206474188,206223745,0,195.83.48.88,Labor theory of value,/* References */
2009-07-22T06:33:35+00:00,303485089,301865400,0,Redthoreau,Labor theory of value,/* Exploitation */ adding statement with ref
2008-05-16T05:03:50+00:00,212774503,212632609,0,71.174.177.230,Labor theory of value,/* The importance of labor */
2007-03-27T00:41:33+00:00,118145052,116708562,0,CmdrObot,Labor theory of value,sp: constrast→contrast
2008-03-17T14:31:19+00:00,198860965,198210813,0,81.246.46.114,Labor theory of value,/* The Definitions of Value and Labor */
2008-06-16T05:10:27+00:00,219638422,219098821,0,Davfoster88,Labor theory of value,
2009-02-18T12:37:32+00:00,271559976,270357960,0,WacoJacko,Labor theory of value,Disambiguate [[Rent]] to [[Economic rent]] using [[:en:Wikipedia:Tools/Navigation_popups|popups]] -[[Wikipedia:Disambiguation pages with links|You can help!]]
2006-07-10T23:47:19+00:00,63134807,63132659,0,Cplot,Labor theory of value,added subheading to 'The theory's development' section and removed partenthetical from other heading
2007-08-17T10:55:08+00:00,151798491,150209875,0,Bobfrombrockley,Labor theory of value,/* The birth of the LTV */  john locke
2006-11-23T07:32:11+00:00,89612947,89077184,0,SmackBot,Labor theory of value,ISBN formatting/gen fixes  using [[WP:AWB|AWB]]
2009-09-22T01:48:03+00:00,315414323,314697314,0,Fifelfoo,Labor theory of value,/* Modern criticisms */
2008-12-19T00:55:52+00:00,258887460,258887374,0,71.202.65.243,Labor theory of value,/* Competing Theories */ Cl.
2006-09-01T18:14:40+00:00,73261860,73261496,0,Yargevad,Labor theory of value,/* Adam Smith and David Ricardo */
2006-08-17T22:34:51+00:00,70314129,70312103,0,Cplot,Labor theory of value,"rv to prevandlzied version (you're violating OR, NPOV and veifiability policies)"
2006-11-11T23:29:29+00:00,87229030,86277043,0,BlueSquadronRaven,Labor theory of value,/* External links */ Rm user signature.
2007-02-11T07:05:02+00:00,107267204,106591933,0,209.217.195.52,Labor theory of value,Provided citation
2008-02-18T00:19:15+00:00,192180222,188806175,0,65.169.45.251,Labor theory of value,
2009-07-13T14:40:05+00:00,301865400,297430444,0,Andrew Lancaster,Labor theory of value,/* Definitions of value and labour */  solution?
2007-01-31T19:47:49+00:00,104652136,103861912,0,Alex1011,Labor theory of value,/* The importance of labor */
2006-08-04T21:59:04+00:00,67716239,67711997,0,Economizer,Labor theory of value,requesting a source for the definition. We need a good secondary source defining it. I don't think this is correct.
2006-12-02T21:21:07+00:00,91655069,90629802,0,Johnleemk,Labor theory of value,cite for quote in lead
2007-01-28T16:40:03+00:00,103861912,103632100,0,Bob timms,Labor theory of value,Updated internal link
2010-01-27T18:31:45+00:00,340375753,337166381,0,Koavf,Labor theory of value,"deprecated template, replaced: {{Harvard reference → {{Citation (4) using [[Project:AWB|AWB]]"
2007-09-27T04:38:07+00:00,160630022,158792424,0,64.131.173.98,Labor theory of value,/* The birth of the LTV */
2009-04-19T11:17:57+00:00,284787694,284765904,0,Peter Isotalo,Labor theory of value,"""corn"" -> ""grain"""
2007-04-14T18:10:38+00:00,122795493,122794816,0,Davidellerman,Labor theory of value,/* References */
2009-10-15T13:51:16+00:00,320013642,315414323,0,Eurodos,Labor theory of value,/* References */
2007-04-09T11:59:23+00:00,121402355,120919809,0,Jurriaan,Labor theory of value,/* The birth of the LTV */
2007-06-26T11:12:44+00:00,140718956,139873903,0,Anchor Link Bot,Labor theory of value,Notifying of internal link to section [[Labor theory of value#Böhm-Bawerk’s criticism|Böhm-Bawerk’s criticism]] from [[Labor theory of value]]
2009-01-07T19:38:17+00:00,262588762,262114159,0,Andrey Andreev,Labor theory of value,/* Jevons */
2007-04-20T13:58:42+00:00,124357411,124301643,0,Jacob Haller,Labor theory of value,/* The Definition of Value */
2008-01-13T00:13:15+00:00,183939405,183814219,0,Rick Norwood,Liberalism,rv  The self-contradictory ideas of a mystic neo-Nazi are not important enough for inclusion here.
2009-05-02T22:38:28+00:00,287531418,287530591,0,ThinkBlue,Liberalism,[[WP:UNDO|Undid]] revision 287530591 by [[Special:Contributions/Harleyrocker|Harleyrocker]] ([[User talk:Harleyrocker|talk]])
2007-12-03T15:57:47+00:00,175501778,174688725,0,Rossenglish,Liberalism,/* Free market */ rm '
2006-12-19T03:53:21+00:00,95240801,94863307,0,71.246.87.215,Liberalism,/* Liberalism and democracy */
2006-08-13T20:11:12+00:00,69442711,69438667,0,207.200.116.202,Liberalism,/* See also */
2007-03-30T17:48:39+00:00,119083668,118847612,0,AzaToth,Liberalism,Changing protection template from {{sprotect}} to {{pp-semi-protected}}
2007-06-21T10:50:25+00:00,139643650,139287626,0,Ground Zero,Liberalism,/* Splits within Liberalism */
2008-08-12T09:36:28+00:00,231419712,230595342,0,Woohookitty,Liberalism,disam
2009-03-24T12:53:17+00:00,279351737,278548551,0,Galoubet,Liberalism,Linkfixing
2008-02-29T16:58:41+00:00,194923154,194923054,0,Jagged 85,Liberalism,/* Origins of liberal thought */ certain aspects
2009-02-18T23:03:45+00:00,271684238,270281918,0,Kjallakr,Libertarianism,/* Current libertarian movements */
2008-08-18T17:10:47+00:00,232722125,232713688,0,TheOldJacobite,Libertarianism,[[WP:UNDO|Undid]] revision 232713688 by [[Special:Contributions/207.197.140.196|207.197.140.196]] ([[User talk:207.197.140.196|talk]])
2008-11-02T02:01:33+00:00,249110124,249109874,0,Themfromspace,Libertarianism,Reverted 2 edits by [[Special:Contributions/82.3.207.115|82.3.207.115]]. ([[WP:TW|TW]])
2007-10-26T19:53:16+00:00,167280243,167279760,0,Spylab,Libertarianism,/* See also */
2009-10-14T03:58:08+00:00,319753584,319727947,0,Ryz,Libertarianism,/* Europe */ The Netherlands: a fast growing number of libertarians? With no seats in parliament and an already lost seat in a single city? Number of members over time?
2009-06-25T13:35:56+00:00,298557503,298544399,0,EPM,Libertarianism,/* Left-libertarianism */
2008-07-11T19:39:48+00:00,225076713,224959901,0,Bob A,Libertarianism,removed pov assertion
2007-01-28T16:30:44+00:00,103860191,103685935,0,69.116.241.175,Libertarianism,
2007-01-24T21:15:40+00:00,102986855,102980187,0,82.73.135.77,Limited government,
2008-03-24T23:45:31+00:00,200670254,200670017,0,4.230.9.82,Limited government,/* Constitution of the United States of America */
2006-08-01T19:02:33+00:00,67090253,65345435,0,Unquietwiki,Limited government,Changed cat
2008-05-16T09:37:37+00:00,212801210,212204785,0,68.191.146.242,Limited government,rv vandalism
2008-06-29T20:45:35+00:00,222527692,222527565,0,Singwaste,Limited government,/* External links */
2008-12-17T01:38:16+00:00,258482540,256985853,0,Michfan2123,Limited government,
2006-05-26T18:34:56+00:00,55293767,54639390,0,Srnec,Limited government,rv
2007-09-10T23:21:46+00:00,157034232,157034026,0,Bobo192,Limited government,Reverted edits by [[Special:Contributions/68.92.151.118|68.92.151.118]] ([[User talk:68.92.151.118|talk]]) to last version by LeoNomis
2008-01-30T05:39:48+00:00,187867084,187865804,0,Allstarecho,Limited government,Reverted edits by [[Special:Contributions/24.8.86.13|24.8.86.13]] ([[User talk:24.8.86.13|talk]]) to last version by 71.105.221.42
2009-07-24T16:51:13+00:00,303962656,303875569,0,SmackBot,Limited government,Date maintenance tags and general  fixes
2008-10-02T23:40:30+00:00,242620237,242620114,0,204.16.228.10,Lyndon LaRouche,
2007-07-04T22:18:14+00:00,142547220,142445782,0,Will Beback,Lyndon LaRouche,/* Criminal conviction and imprisonment (1988–1994) */ 1990 congressional race
2009-07-15T02:59:48+00:00,302159096,302154646,0,Cretog8,Market economy,rvt unclear term
2009-02-27T02:28:07+00:00,273566858,273566850,0,J.delanoy,Market economy,Reverted edits by [[Special:Contributions/207.172.158.155|207.172.158.155]] to last revision by TutterMouse ([[WP:HG|HG]])
2006-11-16T03:45:26+00:00,88136251,60523446,0,JeffersonM,Metaphysical realism,Metaphysical realism is [[Philosophical realism]] and it should redirect there.
2006-06-25T18:52:36+00:00,60523446,59554616,0,Aquillion,Metaphysical realism,Redirecting to [[realism]] until there is enough content on this there to split into its own article.
2008-09-19T18:59:12+00:00,239626396,239542915,0,166.82.218.97,Milton Friedman,/* External links */
2009-10-29T05:42:58+00:00,322685086,321852338,0,72.19.82.214,Milton Friedman,"minor edit, missing comma"
2006-07-27T01:41:41+00:00,66076547,65286169,0,YurikBot,Milton Friedman,robot  Adding: [[el:Μίλτον Φρίντμαν]]
2006-09-14T15:21:41+00:00,75712948,75631788,0,81.182.152.81,Milton Friedman,/* Biography */
2009-07-01T18:45:39+00:00,299739609,299739514,0,76.24.246.162,Milton Friedman,/* Personal life */
2008-11-12T15:04:02+00:00,251348422,251346959,0,Cretog8,Milton Friedman,rvt bloggish link
2006-10-03T22:29:03+00:00,79340497,79335277,0,Rjensen,Milton Friedman,don't be pedantic about Nobel prize
2008-06-04T19:16:49+00:00,217133283,216597734,0,12.29.147.200,Milton Friedman,
2008-07-17T18:21:41+00:00,226286952,226259727,0,Vision Thing,Milton Friedman,/* External links */
2007-03-28T22:38:29+00:00,118632375,118613486,0,SmackBot,Milton Friedman,Date/fix maintenance tags
2009-06-05T12:59:53+00:00,294568513,293563670,0,24.160.80.216,Modern liberalism in the United States,
2008-04-08T12:39:35+00:00,204200840,204082649,0,Rick Norwood,Modern liberalism in the United States,rv v
2008-03-04T08:10:54+00:00,195757260,195339720,0,Rjwilmsi,Modern liberalism in the United States,"[[WP:AWB/T|Typo fixing]] , typos fixed: the the → the  using [[Project:AutoWikiBrowser|AWB]]"
2006-10-26T22:41:17+00:00,83935965,83935671,0,Rettetast,Monopoly,Revert to revision 83110070 dated 2006-10-23 00:40:00 by Cyktsui using [[:en:Wikipedia:Tools/Navigation_popups|popups]]
2007-07-31T21:16:29+00:00,148358925,148186616,0,SmackBot,Monopoly,Date/fix the maintenance tags or gen fixes
2007-12-08T13:43:09+00:00,176561744,176561734,0,VoABot II,Monopoly,"BOT - Reverted edits by [[Special:contributions/69.0.24.174|69.0.24.174]] {[[User:VoABot_II/Help#Revert_reasons|possible test edits]]} to revision #176452691 by ""JohnI""."
2006-12-25T03:30:38+00:00,96368439,95790126,0,Monomaniac~enwiki,Monopoly,/* Price setting for unregulated monopolies */ potential competition
2009-04-02T01:32:32+00:00,281201597,280741644,0,69.14.64.150,Monopoly,Fixed a spelling error
2009-01-06T21:39:49+00:00,262386879,262386828,0,Nn123645,Monopoly,Reverted edits by [[Special:Contributions/97.95.225.47|97.95.225.47]] to last version by Pdbailey ([[WP:HG|HG]])
2007-12-29T23:25:02+00:00,180880587,178800233,0,Joel.a.davis,Mutualism (economic theory),"Added to category ""mutualism"""
2009-07-29T05:24:18+00:00,304820582,303173251,0,71.227.188.172,Natural rights and legal rights,/* John Locke */
2007-03-01T22:16:22+00:00,111928057,111870645,0,Libertatia,Mutualism (economic theory),"trimmed POV editorializing, redundancy, contested labor-notes claim"
2010-02-02T20:54:18+00:00,341546421,341544635,0,AnomieBOT,Natural rights and legal rights,Fixing reference errors
2006-12-16T05:32:02+00:00,94655029,94519848,0,65.27.236.229,New York Stock Exchange,/* Business */
2007-11-17T07:41:33+00:00,172051919,171960776,0,Andy Marchbanks,New York Stock Exchange,
2009-04-02T21:29:33+00:00,281372027,281268268,0,JohnSawyer,Objectivism,punctuation
2009-10-16T00:03:38+00:00,320119530,320119386,0,Jusdafax,Objectivism,Reverted edits by [[Special:Contributions/76.88.196.58|76.88.196.58]] to last revision by 217.206.231.128 ([[WP:HG|HG]])
2009-03-09T14:22:50+00:00,276037511,276031505,0,Snowded,Objectivism,possibly appropriate for Ayn Rand page but not this one
2006-07-03T21:34:35+00:00,61913996,61739122,0,Niedson,Objectivism,interwiki PT
2006-08-15T23:18:56+00:00,69909555,69904354,0,24.9.90.246,Objectivism,
2006-10-05T02:04:58+00:00,79571475,79401584,0,141.211.251.28,Objectivism,"/* Criticism of Ayn Rand’s reading of the history of philosophy */  I removed the word ""famed"" to describe Rawls, because it suggests that Rand is being presumptuous in criticizing someone well-known."
2008-09-26T14:05:26+00:00,241126915,240903146,0,Karbinski,Objectivism,added side panel back in - oops
2008-01-24T16:10:05+00:00,186608041,186455017,0,DAGwyn,Objectivism,"/* Epistemology: Reason */ stress required to emphasize the distinction, which otherwise is likely to not be noticed"
2009-05-20T01:46:45+00:00,291082712,290991112,0,SmackBot,Objectivism,Date maintenance tags and general  fixes
2007-06-23T21:14:17+00:00,140178413,139612270,0,71.231.172.25,Objectivism,/* Origins of the name */  repaired the shameful spelling of Kierkegaard's name
2008-12-22T23:32:15+00:00,259618318,259601684,0,Kjaer,Objectivism,/* Epistemology: Reason */  link to physical measurement is misleading
2007-08-13T19:25:11+00:00,151014535,150993686,0,67.90.197.194,Objectivism,"Fixed your typo and added back a word, but this is good work, otherwise.  If you keep this up, one day Wikipedia might be taken seriously by academia."
2007-06-25T13:07:45+00:00,140513522,140178413,0,TexasDawg,Objectivism,/* ''Rand's philosophical system'' */
2008-06-23T19:40:25+00:00,221264128,221264085,0,ClueBot,Objectivism,"Reverting possible vandalism by [[Special:Contributions/67.67.75.215|67.67.75.215]] to version by Karbinski. False positive? [[User:ClueBot/FalsePositives|Report it]]. Thanks, [[User:ClueBot]]. (423207) (Bot)"
2009-02-05T08:08:37+00:00,268650955,268637140,0,Snowded,Objectivism,reference does not link to data and would need to be a third party source anyway
2008-04-18T22:41:39+00:00,206585023,206563649,0,Karbinski,Objectivism,/* Cultural impact */ reference clause moved into parenthesis
2008-11-13T17:29:49+00:00,251588352,251225738,0,152.23.190.211,Objectivism,/* Ethics: Rational self-interest */
2008-05-28T17:42:13+00:00,215542350,214555341,0,DAGwyn,Objectivism,/* Cultural impact */ extreme responses (the subject) wouldn't include considered responses
2006-06-25T04:48:15+00:00,60445202,60341596,0,Alphachimpbot,Objectivism,bot updating tag  using [[Wikipedia:AutoWikiBrowser|AWB]]
2007-11-25T12:42:09+00:00,173671617,173464329,0,Skomorokh,Objectivism,/* Cultural impact */ +image
2008-01-22T20:08:40+00:00,186182100,186149456,0,DAGwyn,Objectivism,"""OR"" tag was added by someone with an anti-subject matter POV agenda, as evidenced by comments in the edit log.  If there is some specific text requiring a reference, tag it or discuss in Talk."
2007-07-20T20:34:21+00:00,145993416,145993036,0,WLU,Objectivism,"/* Status in the discipline */ space, minor tweaks"
2009-01-14T04:32:23+00:00,263973281,262708102,0,69.134.50.92,Objectivism,/* Ethics: Rational self-interest */
2007-11-10T06:44:25+00:00,170499780,170438159,0,Farly,Objectivism,
2008-07-18T15:05:33+00:00,226457953,226456387,0,Karbinski,Objectivism,/* Intellectual impact */ added citation
2006-09-03T14:30:49+00:00,73577293,73529715,0,LGagnon,Objectivism,"revert; as I said, we are still debating whether or not she should be called a philosopher; see [[Talk:Ayn Rand]]"
2008-10-09T14:32:34+00:00,244137839,244084351,0,Karbinski,Objectivism,/* Brief overview */ brevity
2008-01-29T22:08:27+00:00,187786912,187786303,0,Skomorokh,Objectivism,Reverted edits by [[Special:Contributions/24.187.27.93|24.187.27.93]] ([[User talk:24.187.27.93|talk]]) to last version by ClueBot
2006-12-19T03:18:58+00:00,95235656,93497645,0,Pixelface,Objectivism,wikified first instance of Atlas Shrugged
2006-11-11T01:06:51+00:00,87055583,86836265,0,AdamReed,Objectivism,/* Epistemology: reason */ Corrected relation of perception to sensation per main article on Objectivist epistemology
2006-06-28T01:28:26+00:00,60942365,60942247,0,Jossi,Objectivism,/* Academic philosophy */ requested citation
2007-09-05T17:40:40+00:00,155876512,155845012,0,DAGwyn,Objectivism,"/* Cultural impact */ change to American spelling, which seems to be the norm here"
2008-02-28T17:44:45+00:00,194695220,193325170,0,Karbinski,Objectivism,/* External links */ link text updated to reflect current proper name
2007-07-16T14:12:43+00:00,145001811,144698604,0,Karbinski,Objectivism,
2009-01-04T17:10:10+00:00,261916149,261915982,0,Skomorokh,Objectivism,/* Ayn Rand on the history of philosophy */ it would be nice to have quotes & proper references for this
2009-08-17T21:06:37+00:00,308550490,308516252,0,Karbinski,Objectivism,/* Epistemology: reason */ addition of elves serves no clarifying purpose as far as I can tell
2007-04-04T15:30:03+00:00,120250106,119999306,0,66.235.25.22,Objectivism,incorrect word usage - changed to reflect meaning of sentence.
2009-09-19T02:59:02+00:00,314845755,314674110,0,Javert,Objectivism,/* References */ re-title
2009-06-29T11:00:55+00:00,299289353,299147949,0,Nealparr,Objectivism,grammar
2009-06-11T20:43:28+00:00,295850430,295850045,0,Karbinski,Objectivism,/* Atheism */
2006-10-23T14:19:18+00:00,83208541,82673742,0,Ethan a dawe,Objectivism,
2010-01-24T22:48:01+00:00,339809241,339504185,0,Vertie8462,Objectivism,/* Politics: individual rights and capitalism */
2009-09-30T22:07:45+00:00,317168769,316964287,0,Ilgiz,Objectivism,/* References */ allow jumping to a biblio item from a Harvard reference such as (Rand 1992); this needs to be a default  behaviour of the cite book template
2006-06-28T23:50:15+00:00,61107677,61107237,0,Jossi,Objectivism,"/* Academic philosophy */ rm speculation, keeping the facts + cite"
2009-07-10T17:04:23+00:00,301401255,301301934,0,Paine Ellsworth,Objectivism,"rm """" and convert Cquotes to Quotes per [[WP:Quote]] - cquotes only used for [[pull quotes]]"
2007-05-03T08:25:24+00:00,127906075,127773800,0,Pictureuploader,Objectivism,supercat
2008-02-04T14:19:56+00:00,189025505,189025212,0,Karbinski,Objectivism,/* Ethics: Rational self-interest */
2009-03-14T23:08:10+00:00,277279422,277279405,0,ClueBot,Objectivism,"Reverting possible vandalism by [[Special:Contributions/69.116.103.161|69.116.103.161]] to version by 72.199.110.160. False positive? [[User:ClueBot/FalsePositives|Report it]]. Thanks, [[User:ClueBot|ClueBot]]. (629765) (Bot)"
2008-06-17T19:19:13+00:00,219983060,219982219,0,Karbinski,Objectivism,/* Politics: Individual rights and capitalism */ As per my previous edit
2006-06-24T14:56:02+00:00,60341596,60341187,0,24.220.246.20,Objectivism,/* Epistemology: reason */
2007-06-19T13:51:01+00:00,139199633,139134418,0,DAGwyn,Objectivism,"Actually there is also a fair amount of ontological/epistemological work cited, e.g. Little's theory of elementary waves."
2010-02-13T22:36:57+00:00,343837682,343837506,0,Brian0918,Objectivism,"/* Epistemology: reason */ changed ""limited identity"" to much clearer ""finite identity"""
2006-07-07T18:55:24+00:00,62601076,62484602,0,216.194.178.161,Objectivism,
2007-03-20T19:44:34+00:00,116599729,116301460,0,DAGwyn,Objectivism,"I had already fixed that!  ""Many"" not ""most"".  It is definitely very many."
2007-02-02T21:40:26+00:00,105188543,104497625,0,12.111.178.21,Objectivism,/* External links */
2007-10-22T14:52:17+00:00,166289183,166264283,0,Darkmusashi,Objectivism,"Very well, this covers both."
2009-07-27T04:16:53+00:00,304413857,304305380,0,Paine Ellsworth,Objectivism,/* Ethics: rational self-interest */ possessive to inside int. link+spacing+punct.
2008-09-02T04:15:07+00:00,235742079,235378513,0,140.247.240.59,Objectivism,/* Ethics: Rational self-interest */  unnecessary comma
2006-08-12T05:30:09+00:00,69160017,69152231,0,68.1.169.198,Objectivism,I added a comment that Peikoff's book OPAR is not published by an academic press.  The inclusion of that book in the section on reception within the academy is misleading.  OPAR is a layperson's book.
2009-06-10T18:31:07+00:00,295625822,295624183,0,Karbinski,Objectivism,style change
2009-12-18T00:07:18+00:00,332400984,332395569,0,RL0919,Objectivism,"[[WP:UNDO|Undid]] revision 332395569 by [[Special:Contributions/Omingod|Omingod]] ([[User talk:Omingod|talk]]) Non-English external links are discouraged, see [[WP:ELNO#Non-English-language_content]]"
2009-02-14T00:37:05+00:00,270565799,270565601,0,Skomorokh,Objectivism,/* Monographs and Essays */ perhaps this ought to be merged to [[Bibliography of work on Objectivism]]?
2008-12-07T03:16:59+00:00,256350433,256312713,0,4.224.66.54,Objectivism,/* Epistemology: Reason */
2008-02-22T19:08:26+00:00,193325170,193234592,0,DAGwyn,Objectivism,"""fixes"" mangled structure and grammar; restored, with link to ""individualism"" article"
2009-11-09T14:59:11+00:00,324847270,324847133,0,RL0919,Objectivism,[[Help:Reverting|Reverted]] edits by [[Special:Contributions/168.184.255.130|168.184.255.130]] ([[User talk:168.184.255.130|talk]]) to last version by RL0919
2007-01-01T05:08:31+00:00,97671735,97671503,0,12.129.98.129,Objectivism,/* Aesthetics: Romantic Realism */
2009-12-22T01:43:22+00:00,333168879,332400984,0,RjwilmsiBot,Objectivism,fixing page range dashes using [[Project:AWB]]
2008-04-26T01:09:02+00:00,208235409,208226368,0,Alfred Centauri,Objectivism,[[WP:UNDO|Undid]] revision 208226368 by [[Special:Contributions/69.121.221.174|69.121.221.174]] (sigh)
2006-08-16T22:28:18+00:00,70109846,69909555,0,74.227.194.187,Objectivism,/* Origins of the name */
2008-10-09T07:40:05+00:00,244084351,244084230,0,MuzikJunky,Objectivism,/* Etymology */
2007-02-11T21:26:23+00:00,107399569,107399387,0,130.13.242.28,Objectivism,/* Summary and Sources */
2009-12-02T19:30:51+00:00,329295028,329294152,0,RL0919,Objectivism,Reverted 1 edit by [[Special:Contributions/164.116.250.21|164.116.250.21]] identified as [[WP:VAND|vandalism]] to last revision by [[User:71.62.173.169|71.62.173.169]]. ([[WP:TW|TW]])
2007-10-15T20:06:55+00:00,164790244,164361319,0,Karbinski,Objectivism,/* Monographs */ removing red link (non-linked text remains)
2008-10-05T21:25:58+00:00,243270029,243268485,0,Nvychivwyxan,Objectivism,"/* Politics: Individual rights and capitalism */ Fixed inconsistent and ugly dashes, while removing superfluous ones. Fixed spelling of individual."
2009-07-26T15:20:17+00:00,304305380,304018712,0,195.132.141.235,Objectivism,/* Ethics: rational self-interest */
2007-02-26T21:16:44+00:00,111162543,110202433,0,Kukyona,Objectivism,See talk page for reasons
2009-02-23T06:48:18+00:00,272669923,272669602,0,Snowded,Objectivism,uncited material with personal comment reverted
2008-12-26T19:47:52+00:00,260212937,260210906,0,Snowded,Objectivism,Insert ACTUAL quote from citation for a second time.  Remove tautology (we all know what a mixed economy means)
2006-12-31T20:10:05+00:00,97594808,97082837,0,24.220.246.20,Objectivist metaphysics,"/* The Law of Identity: ""Existence is Identity"" */"
2008-03-01T10:30:07+00:00,195093047,176522635,0,Plrk,Objectivist metaphysics,"[[WP:AWB/T|Typo fixing]] , typos fixed: In so far → Insofar  using [[Project:AutoWikiBrowser|AWB]]"
2008-08-20T15:44:15+00:00,233131168,232615630,0,Karbinski,Objectivist metaphysics,"/* The Axiom of Identity: ""To be is to be something, a thing is what it is,"" ""A is A."" */ lets see what aristotle had to say"
2007-07-21T16:46:11+00:00,146149862,146148124,0,71.57.217.121,Objectivist metaphysics,"/* The Axiom of Identity: ""To be is to be something, a thing is what it is,"" ""A is A."" */"
2008-10-31T20:55:23+00:00,248885490,248764684,0,Cirt,Objectivist metaphysics,"clean up, Replaced: {{Objectivism|state=autocollapse}} → {{Ayn Rand|state=autocollapse}}  using [[Project:AutoWikiBrowser|AWB]]"
2007-08-15T19:00:17+00:00,151443153,151433338,0,Karbinski,Objectivist metaphysics,
2007-12-10T02:07:25+00:00,176905717,176905615,0,SatyrTN,Objectivist movement,rm protection icon
2007-08-14T04:40:20+00:00,151104596,148500638,0,Naufana,Objectivist movement,{{otheruses3|Objectivism}}
2007-07-04T22:11:42+00:00,142546357,138310424,0,Blanchette,Objectivist movement,"Removed anachronistic ""Dr."" from Branden. He did not earn his degree until after the split with Rand."
2007-06-05T20:59:31+00:00,136147817,136126757,0,Endlessmike 888,Objectivist movement,[[WP:UNDO|Undid]] revision 136126757 by [[Special:Contributions/Skier31415|Skier31415]] ([[User talk:Skier31415|talk]])
2007-03-07T01:16:31+00:00,113206749,113205678,0,Coelacan,Objectivist movement,there's no merger discussion on the talk pages
2008-02-02T13:12:18+00:00,188590256,188590122,0,Smyth,Paradox of value,/* Neoclassical solutions */ Adjust header levels and captions
2009-08-13T02:24:15+00:00,307672905,282796603,0,TXiKiBoT,Paradox of value,robot Adding: [[pt:Paradoxo da água e do diamante]]
2009-12-04T15:35:21+00:00,329677381,329275041,0,Rjwilmsi,Paradox of value,"deprecated parameters cleanup(0), Replaced: | accessyear = 2006 | accessmonth = April → |accessdate= April 2006  (2), using [[Project:AWB]]"
2009-04-09T16:38:32+00:00,282796603,282796484,0,194.72.35.70,Paradox of value,/* Labor theory of value */
2007-03-13T16:39:06+00:00,114828830,111879858,0,143.239.127.116,Paradox of value,/* Objectivist Opinion */  rm scare quotes
2007-08-24T13:36:27+00:00,153355691,150878996,0,164.36.38.240,Paradox of value,
2007-06-09T00:58:08+00:00,136948868,136948493,0,162.84.128.99,Paradox of value,m
2008-03-27T22:10:46+00:00,201429470,201073730,0,Que,Paradox of value,/* Objectivism */ changed link to disambig
2008-10-23T07:40:50+00:00,247125404,225993572,0,76.186.189.29,Paradox of value,/* Marginalism */
2006-10-24T19:59:29+00:00,83487826,82606152,0,Anarcho-capitalism,Paradox of value,/* Marginal utility */ more direct explanation of the solution to the paradox
2006-12-30T23:37:19+00:00,97426335,97396856,0,Dullfig,Paradox of value,where do you get off deleting an entire section without first talking about it?
2008-04-29T06:02:03+00:00,208939767,201429470,0,Chobot,Paradox of value,robot  Adding: [[ko:가치의 역설]]
2006-09-13T17:39:04+00:00,75541261,72722096,0,Economizer,Paradox of value,/* Objectivist Opinion */ this really needs a citiation. i would think Rand would agree with the STV.
2007-05-05T00:46:28+00:00,128331523,126806934,0,John Quiggin,Paradox of value,/* References */ rm cat
2008-06-15T23:58:34+00:00,219590194,219580745,0,Thijs!bot,Paradox of value,robot  Adding: [[bs:Paradoks dijamant-voda]]
2009-11-13T23:52:17+00:00,325711242,307672905,0,75.2.132.239,Paradox of value,Minor (which/that confusion)
2007-11-06T04:32:01+00:00,169538270,161975828,0,BrokenSegue,Paradox of value,/* References */
2006-10-02T23:41:18+00:00,79144399,79144033,0,142.240.200.10,Paradox of value,
2007-10-17T00:07:44+00:00,165075144,163034002,0,207.173.178.2,Planned economy,add another contemporary planned economy
2006-07-20T21:09:45+00:00,64920981,64920894,0,201.235.115.67,Planned economy,/* Planned economies and socialism */
2008-12-05T04:37:52+00:00,255984130,255984085,0,Skipsievert,Price system,/* History */ comma
2007-11-01T23:17:44+00:00,168613243,168612673,0,Skipsievert,Price system,/* History */ There is no free or unfree Price System. Both are only price system communist or capitalist.
2008-02-14T10:17:53+00:00,191391011,190476829,0,192.248.16.90,Private sector,/* The Role Of Private Sector */
2006-11-17T09:39:25+00:00,88393764,88393758,0,AntiVandalBot,Private sector,BOT - rv [[Special:Contributions/195.194.79.4|195.194.79.4]] ([[User talk:195.194.79.4|talk]]) to last version by Xumm1du
2006-08-12T21:13:07+00:00,69273359,69250960,0,Gwernol,Property,Reverted edits by [[Special:Contributions/Jcchat66|Jcchat66]] ([[User talk:Jcchat66|talk]]) to last version by Andres
2007-08-16T06:43:18+00:00,151554100,151554077,0,ClueBot,Property,"Reverting possible vandalism, by [[User:124.7.70.53]] ([[User:ClueBot/PossibleVandalism|see here]]).  If this is a mistake, [[User:ClueBot/FalsePositives|report it]].  Thanks, [[User:ClueBot|ClueBot]]. (Bot)"
2007-03-07T21:03:31+00:00,113403666,113390257,0,Zzuuzz,Property,Reverted edits by [[Special:Contributions/Comertmetin|Comertmetin]] ([[User talk:Comertmetin|talk]]) to last version by Bibliophylax
2006-09-30T18:30:06+00:00,78722623,76451272,0,82.103.134.254,Property,"/* General characteristics */ wishes are fishes, not horses"
2008-04-12T13:09:12+00:00,205118754,205040664,0,71.109.216.202,Property,
2007-06-18T09:11:22+00:00,138940008,136772345,0,82.69.29.238,Property,/* External links and references */
2007-10-18T03:49:45+00:00,165337662,165337578,0,VoABot II,Property,"BOT - Reverted edits by [[Special:contributions/149.84.147.134|149.84.147.134]] {[[User:VoABot_II/Help#Revert_reasons|vandalism]]} to revision #164252142 by ""Closedmouth""."
2008-12-27T00:54:29+00:00,260253589,260253458,0,Gold Index,Property,
2009-09-12T18:24:13+00:00,313410435,312664093,0,BotKung,Property,robot Adding: [[th:ทรัพย์สิน]]
2009-04-01T14:05:04+00:00,281078030,280363421,0,RussBot,Property,Robot-assisted fix [[WP:DPL|links to disambiguation page]] State
2007-03-08T15:25:09+00:00,113586361,111071498,0,RHaden,Public ownership,"Cleaned up entries for ""Public Services"" and ""Essential Services"".  However, I recommend renaming the latter to ""Accessibility"" vel sim.  Will rework the rest later."
2008-12-13T19:40:52+00:00,257750688,253839234,0,Radagast83,Public ownership,No clear consensus for merger
2006-08-16T02:05:19+00:00,69932994,65663117,0,LGagnon,Randism,rm philosophy as per [[Talk:Ayn Rand#Rand is not a philosopher]]
2008-10-05T03:03:33+00:00,243091287,241417048,0,Drlight11,Reaganomics,"Not sure how to add the ""citation needed"" tag.  Reverting my deletion while also adding the tag or a citation would be appropriate."
2008-08-17T01:40:38+00:00,232415017,232389185,0,SmackBot,Real and nominal value,Date the maintenance tags and general  fixes
2009-01-18T23:14:50+00:00,264963551,257894052,0,LOL,Real and nominal value,/* Uses and examples of nominal and real values */ Em [[MOS:DASH|dash]]es.
2007-09-09T05:09:18+00:00,156631240,156181100,0,208.103.143.9,Reaganomics,/* Support for Reaganomics */
2007-05-21T04:54:21+00:00,132372064,114662557,0,Econn,Real and nominal value,styling
2006-11-24T13:11:25+00:00,89820685,89819684,0,John Quiggin,Real and nominal value,a bit more
2007-04-26T08:51:36+00:00,126095102,125606601,0,Nihil novi,Realisms,/* Literature */
2008-02-13T18:46:58+00:00,191192674,191192655,0,Keilana,Realisms,Reverted edits by [[Special:Contributions/165.234.104.5|165.234.104.5]] ([[User talk:165.234.104.5|talk]]) to last version by Wikiscient
2006-12-31T03:59:12+00:00,97470497,96860931,0,Radagast83,Responses to Objectivism,"It looks like someone has already merged in this article into [[Objectivism (Ayn Rand)]], so I'm finishing their work"
2006-08-31T13:42:00+00:00,73021497,72664483,0,221.184.215.233,Responses to Objectivism,/* Academic philosophy */
2006-06-22T11:49:18+00:00,59982403,59982215,0,203.206.106.237,Scientology,/* Operating Thetan levels and the Xenu incident */
2007-01-12T18:55:29+00:00,100272298,100201277,0,Halda,Scientology,/* Notes */ 2-column notes
2007-08-22T03:25:31+00:00,152839425,151749698,0,J Milburn,Scientology,Remove spare full stop
2009-08-10T18:23:12+00:00,307209002,307164461,0,Jayen466,Scientology,"rvt -- pls discuss on talk. Mention of tax exempt status follows mention of donations, because it is they which are tax-exempt and often a cause of contoversy"
2006-09-17T11:40:51+00:00,76211234,76199263,0,ChrisO~enwiki,Scientology,/* External links */ + [[Category:UFO religions]]
2009-04-24T19:20:09+00:00,285908948,285681441,0,Dr doris,Scientology,/* Scientology and the internet */
2007-03-25T12:47:16+00:00,117740702,117722323,0,Steve Dufour,Scientology,"""described"" is a more general term + ""brutally"" not defined"
2007-12-17T22:22:22+00:00,178591052,178536730,0,Truff,Scientology,
2006-10-09T22:26:08+00:00,80499893,80451978,0,Dullfig,Socialism,removed original research
2006-10-03T12:50:26+00:00,79236950,78979304,0,Donnachadelong,Socialism,"/* Contemporary socialism */ Boliviarianism is pan-nationalist, not nationalist."
2008-12-15T05:24:05+00:00,258062217,258062065,0,71.91.22.172,Socialism,
2009-12-19T03:07:37+00:00,332604457,332414204,0,174.71.87.142,Socialism,
2007-10-04T23:06:04+00:00,162346594,162344866,0,Jacob Haller,Socialism,[[WP:UNDO|Undid]] revision 162344866 by [[Special:Contributions/72.93.142.69|72.93.142.69]] ([[User talk:72.93.142.69|talk]])
2007-05-31T07:38:03+00:00,134760734,134760578,0,Red Deathy,Socialism,Ref tidy.
2006-12-23T04:14:15+00:00,96045567,96021484,0,71.194.71.220,Socialism,/* See also */
2006-09-26T22:49:35+00:00,77996190,77978593,0,Serpent-A,Socialism,revert deletion of period
2007-11-28T02:34:57+00:00,174280925,174277657,0,Cberlet,Socialism,rv
2009-04-12T21:14:42+00:00,283428268,283428115,0,Tocino,Socialism,added links
2006-10-16T02:05:35+00:00,81706799,81706040,0,Serpent-A,Socialism,revert
2009-01-26T15:25:47+00:00,266534971,266534184,0,RolandR,Socialism,Reverted 1 edit by [[Special:Contributions/Tonysgirlfriend|Tonysgirlfriend]] identified as [[WP:VAND|vandalism]] to last revision by [[User:AlexiusHoratius|AlexiusHoratius]]. ([[WP:TW|TW]])
2007-02-17T17:19:33+00:00,108868206,108868173,0,Antandrus,Socialism,Reverted edits by [[Special:Contributions/75.71.167.118|75.71.167.118]] ([[User talk:75.71.167.118|talk]]) to last version by Antandrus
2009-03-01T20:00:27+00:00,274221397,274148959,0,Craitman17,Socialism,/* 21st century */
2007-06-20T22:50:37+00:00,139532009,139516784,0,Jacob Haller,Socialism,"/* The rise of the Soviet Union */ Capitalization avoids ambiguity. (Some other communists, e.g. anarcho-communists, had broken with state-social-democrats long before.)"
2009-01-02T13:57:01+00:00,261451943,261451916,0,Versus22,Socialism,Reverted edits by [[Special:Contributions/Roliesukks|Roliesukks]] to last version by HexaChord ([[WP:HG|HG]])
2009-05-16T15:29:09+00:00,290328218,289850160,0,85.225.150.110,Socialism,/* First International */
2008-08-19T04:01:32+00:00,232832089,232576460,0,Tim010987,Socialism,
2009-10-13T04:45:09+00:00,319564997,319533767,0,129.63.65.30,Socialism,
2007-10-25T19:03:03+00:00,167040715,167031946,0,Vision Thing,Socialism,/* Criticisms of socialism */ exact quote and better source
2008-08-16T12:06:59+00:00,232299785,232138577,0,92.232.150.252,Socialism,internal links
2009-04-12T15:29:33+00:00,283374297,283334462,0,Master Wikiman,Socialism,/* After World War II */
2009-06-11T14:43:36+00:00,295788945,295788913,0,Fyyer,Socialism,Reverted edits by [[Special:Contributions/205.154.181.54|205.154.181.54]] to last revision by ClueBot ([[WP:HG|HG]])
2009-01-22T18:19:49+00:00,265748990,265748961,0,ClueBot,Socialism,"Reverting possible vandalism by [[Special:Contributions/167.86.1.105|167.86.1.105]] to version by Sting au. False positive? [[User:ClueBot/FalsePositives|Report it]]. Thanks, [[User:ClueBot|ClueBot]]. (541115) (Bot)"
2008-10-21T05:30:40+00:00,246665948,246563381,0,EgbertMcDunk,Socialism,/* The Second International */
2008-03-31T17:11:19+00:00,202333466,202273849,0,Irishguy,Socialism,/* Criticisms of socialism */ rm unsourced
2009-01-19T12:08:51+00:00,265063890,265017877,0,Aelffin,Talk:Anarchism,Clarifying
2009-01-10T23:55:45+00:00,263271782,263267768,0,Aelffin,Talk:Anarchism,/* Link between anarchism and libertarianism in the article */
2009-09-10T07:29:33+00:00,312940872,312939732,0,Cybercobra,Talk:Anarchism,Reverted to revision 312551057 by [[Special:Contributions/Zazaban|Zazaban]]; actually remove the nonsense comment. ([[WP:TW|TW]])
2008-11-13T07:07:56+00:00,251512470,250397270,0,BotPuppet,Talk:Anarchism,"BOT: substituting template per [[Wikipedia:Template substitution|WP:SUBST]], Replaced: {unsigned → {subst:unsigned"
2008-07-20T18:48:59+00:00,226849855,226849617,0,PhilLiberty,Talk:Anarchism,/* Terminological Confusion */
2009-12-24T01:10:15+00:00,333697950,333666248,0,MiszaBot I,Talk:Anarchism,Archiving 2 thread(s) (older than 30d) to [[Talk:Anarchism/Archive 59]].
2008-10-10T21:09:39+00:00,244446693,244371384,0,Cenarium,Talk:Anarchism,"Protected Talk:Anarchism: prevent page-move vandalism, many revisions ([move=sysop] (indefinite))"
2007-09-03T15:07:51+00:00,155424467,155364256,0,Kesh,Talk:Anarchism,Replacing in-Talk archive links with archivebox
2009-11-22T16:01:46+00:00,327302517,326848523,0,Knight of BAAWA,Talk:Anarchism,/* Sad */
2009-07-30T13:29:58+00:00,305072985,305047289,0,Nihilo 01,Talk:Anarchism,/* The American Tradition */
2006-08-16T04:25:19+00:00,69950720,69904654,0,Good Intentions,Talk:Anarchism,/* Sources for anarcho-capitalism being a form of individualist anarchism */
2009-10-15T20:13:41+00:00,320077220,320059135,0,NOVABAKUNINMOI,Talk:Anarchism,/* Any Long standing Anarchist communties Article did not say */ new section
2008-08-03T15:28:32+00:00,229596277,229530772,0,PhilLiberty,Talk:Anarchism,/* Definition of state in regards to anarchism. */
2008-05-14T18:14:32+00:00,212403251,212402338,0,Aelffin,Talk:Anarchism,/* Reliable Sources */  Highlighting relevant portions.
2006-12-26T22:39:29+00:00,96622110,96326832,0,Resonanteye,Talk:Anarchism,"/* talk, and grammar, and spelling */"
2009-06-25T11:25:30+00:00,298541199,293009074,0,Vision Thing,Talk:Anarchism,for discussions about anarcho-capitalism
2006-12-19T21:12:14+00:00,95376667,95368693,0,Plrk,Talk:Anarchism,/* Democracy */
2008-11-08T07:15:30+00:00,250397270,250369147,0,Zazaban,Talk:Anarchism,/* The goal of anarchy */
2008-09-10T13:52:18+00:00,237497317,237495096,0,77.251.34.32,Talk:Anarchism,/* I'ssa dead horse; gettit! */
2006-11-14T16:41:19+00:00,87783720,87783676,0,Intangible,Talk:Anarchism,removal of sanders
2009-09-07T22:57:44+00:00,312481038,312452692,0,Skomorokh,Talk:Anarchism,"/* No State Yes Market / ""Anarcho capitalism"" */ re"
2006-07-03T15:46:40+00:00,61862211,61849804,0,AaronS,Talk:Anarchism,"/* Quo usque tandem, VisionThing? */ indeed"
2006-08-23T20:59:10+00:00,71458881,71454916,0,Supersheep,Talk:Anarchism,/* Marinus's sources */
2006-08-22T15:01:32+00:00,71179295,71179176,0,That'sHot,Talk:Anarchism,/* The Anarchist FAQ as a source */
2009-12-06T19:15:43+00:00,330102257,330102089,0,Khin2718,Talk:Anarchism,/* Accurate reporting */
2007-04-26T16:51:53+00:00,126175170,125962392,0,John Carter,Talk:Anarchism,A class for 1.0
2009-05-29T01:50:37+00:00,293009074,292984149,0,Knight of BAAWA,Talk:Anarchism,/* arguments and debate */
2009-08-09T00:48:47+00:00,306888142,306314602,0,Zazaban,Talk:Anarchism,/* Simple Suggestion */
2006-12-18T21:59:59+00:00,95176981,95175451,0,Plrk,Talk:Anarchism,/* Democracy */
2010-01-22T13:11:35+00:00,339338606,339305894,0,Dronkle,Talk:Anarchism,Promoting to GA
2008-04-20T15:22:19+00:00,206895569,206753648,0,Skomorokh,Talk:Anarchism,"/* ""Anarcho-Capitalism"" again */ response on A-C as derived from anarchism"
2007-12-14T01:30:44+00:00,177791286,176172287,0,Skomorokh,Talk:Anarchism,anarchism=yes! christening the [[Wikipedia:WikiProject Philosophy/Anarchism|Anarchism Taskforce]]!
2009-10-05T01:45:06+00:00,317956835,317934301,0,Skomorokh,Talk:Anarchism,/* Regarding the photo */ unprotected
2009-04-23T16:48:15+00:00,285680244,285679951,0,Aelffin,Talk:Anarchism,formatting
2008-06-30T18:29:11+00:00,222704032,222702412,0,Singwaste,Talk:Anarchism,/* Libertarian socialism section */
2009-09-28T16:13:53+00:00,316705219,312940872,0,Yobot,Talk:Anarchism,"clean up, Removed: |nested=yes (5), using [[Project:AutoWikiBrowser|AWB]]"
2010-01-29T13:33:09+00:00,340713601,340447224,0,Trust Is All You Need,Talk:Anarchism,
2008-08-19T14:46:44+00:00,232913343,229596277,0,Aelffin,Talk:Anarchism,/* Outrageous: No Noam Chomsky & Howard Zinn Mention */
2006-10-19T04:04:48+00:00,82356702,82356395,0,Radiant hedgehog,Talk:Anarchism,/* Disputes about which schools are not anarchist II */
2007-10-18T21:24:10+00:00,165495514,165495224,0,Aelffin,Talk:Anarchism,/* Contemporary Anarchism */
2008-04-02T19:52:51+00:00,202871731,202791296,0,Leutha,Talk:Anarchism,/* 1999 WTO riot/protest */
2006-06-19T02:23:00+00:00,59371593,59297134,0,Jacob Haller,Talk:Anarchism,/* Agorism */
2009-04-21T06:43:17+00:00,285183450,285182946,0,Skomorokh,Talk:Anarchism,/* Anarcho-totalitarianism */ re
2007-03-07T00:00:15+00:00,113189611,113019819,0,Jacob Haller,Talk:Anarchism,/* Good article nomination */
2006-09-10T00:42:55+00:00,74814265,74811238,0,Donnachadelong,Talk:Anarchism,/* Article needs a lot of work */
2008-01-19T19:17:13+00:00,185476818,185475605,0,Skomorokh,Talk:Anarchism,"/* Anarchism vs Liberalism - move Schools of Thought out. */ support summarizing schools of thought, other problems"
2006-10-27T02:19:05+00:00,83972816,83972493,0,Anarcho-capitalism,Talk:Anarchism,"/* Definitions, history, Tucker */"
2008-01-01T16:34:40+00:00,181401232,181327376,0,Zazaban,Talk:Anarchism,/* Anarchism.net */
2007-03-23T10:20:38+00:00,117253851,116890164,0,AFA,Talk:Anarchism,/* Worst article on a subject I've seen */
2006-12-02T00:53:53+00:00,91501269,91500901,0,Full Shunyata,Talk:Anarchism,/* anarchism and tradition */
2007-05-01T03:35:20+00:00,127334746,127214625,0,Zero1328,Talk:Anarchism,/* Culling the source-spam */
2006-08-28T00:55:01+00:00,72292617,72292564,0,Fjulle,Talk:Anarchism,/* The Anarchist FAQ as a source */
2006-11-22T04:48:23+00:00,89384634,89384089,0,Anarcho-capitalism,Talk:Anarchism,/* Revert warring/content dispute etc. */
2007-02-12T16:02:15+00:00,107580901,107580346,0,Anarcho-capitalism,Talk:Anarchism,"/* Non-standard use of the term ""socialism"" by Tucker */"
2008-03-06T10:26:09+00:00,196255152,195073502,0,124.177.185.105,Talk:Anarchism,/* I'ssa dead horse; gettit! */
2009-10-14T09:17:36+00:00,319781181,319780047,0,Fifelfoo,Talk:Anarchism,/* Is capitalist anarchism really a school of anarchism? */
2009-04-27T01:57:11+00:00,286352709,286352596,0,Oldlaptop321,Talk:Anarchism,Reverted edits by [[Special:Contributions/221.232.142.122|221.232.142.122]] to last revision by Aelffin ([[WP:HG|HG]])
2008-02-15T09:15:34+00:00,191610895,191577231,0,Skomorokh,Talk:Anarchism,/* AAFAQ */ response to chuck
2007-04-21T03:33:06+00:00,124528955,124360748,0,SwitChar,Talk:Anarchism,/* Culling the source-spam */
2007-03-18T16:57:14+00:00,116042294,116040932,0,AFA,Talk:Anarchism,/* Split the topic! */
2008-01-06T00:54:28+00:00,182424754,182424102,0,Chuck0,Talk:Anarchism,/* I'ssa dead horse; gettit! */
2008-02-07T15:03:16+00:00,189738182,189486675,0,Skomorokh,Talk:Anarchism,minor alterations to archiving
2007-10-10T13:05:24+00:00,163555895,163488648,0,Bobfrombrockley,Talk:Anarchism,/* anarcho-capitalism */
2006-11-05T00:18:27+00:00,85752593,85581819,0,Nirvana2013,Talk:Anarchism,Discussion on end of civilization
2007-06-18T18:31:37+00:00,139030126,139019803,0,Dronkle,Talk:Anarchism,/* List of anarchist periodicals */ comment here and on list discussion page
2009-10-20T06:59:02+00:00,320960446,320958477,0,Fifelfoo,Talk:Anarchism,/* On anarchist sectarianism */
2008-08-27T07:32:19+00:00,234520603,234514558,0,Leutha,Talk:Anarchism,/* Why is every few words have a new citation number on it? */
2007-09-17T14:58:32+00:00,158503969,158464275,0,Operation Spooner,Talk:Anarchism,/* Suggested compromise */
2009-02-05T22:09:40+00:00,268779204,268775274,0,Zazaban,Talk:Anarchism,/* Facing the  Enemy quote */
2006-10-30T00:10:35+00:00,84517976,84515068,0,Libertatia,Talk:Anarchism,/* Zaxlebaxism */
2009-09-02T01:49:33+00:00,311389979,306888142,0,Cast,Talk:Anarchism,Adding Alternative Views wikiproject banner. I think anarchism applies as an alternative view not accepted by mainstream society. ...sadly...
2006-09-03T05:45:19+00:00,73528028,73502088,0,The Ungovernable Force,Talk:Anarchism,/* Here is the section */
2006-07-25T09:15:49+00:00,65722929,65716563,0,FrancisTyers,Talk:Anarchism,/* FrancisTyers moving my edit to another article */
2008-05-29T21:19:12+00:00,215822091,215822017,0,80.192.246.56,Talk:Anarchism,/* The Russians wanted an Anarchism */
2006-09-07T13:02:48+00:00,74324846,74324726,0,Good Intentions,Talk:Anarchism,/* Settle down */
2008-05-02T18:45:36+00:00,209749758,209528728,0,Aelffin,Talk:Anarchism,"/* ""Anarcho-Capitalism"" again */"
2006-11-17T21:40:25+00:00,88500104,88477333,0,Blockader,Talk:Anarchism,/* Dispute Resolution */
2007-03-04T22:30:37+00:00,112664368,112656318,0,ONEder Boy,Talk:Anarchism,
2007-09-14T19:49:13+00:00,157910789,157815593,0,Operation Spooner,Talk:Anarchism,/* Suggested compromise */
2007-09-09T08:14:39+00:00,156656707,156655121,0,Liftarn,Talk:Anarchism,/* Proposal to merge Individualist anarchism and anarcho-capitalism */
2008-01-08T17:36:45+00:00,182985771,182937248,0,JoshHeitzman,Talk:Anarchism,/* anarchism.net */ Notability of external links is irrelevant
2008-01-29T05:07:47+00:00,187636776,187627580,0,Operation Spooner,Talk:Anarchism,/* Anarchism vs Liberalism - move Schools of Thought out. */
2007-03-02T17:29:43+00:00,112111368,111907733,0,Chuck0,Talk:Anarchism,/* Good article nomination */
2007-02-04T21:50:07+00:00,105655493,105654925,0,Anarcho-capitalism,Talk:Anarchism,"/* Non-standard use of the term ""socialism"" by Tucker */"
2008-12-15T06:58:03+00:00,258073555,258045162,0,Cast,Talk:Anarchism,message box link fix
2008-11-27T03:03:50+00:00,254353284,254307150,0,Zazaban,Talk:Anarchism,/* The goal of anarchy */ Returning comment deleted for reasons I'm not sure of.
2006-08-21T11:16:38+00:00,70939771,70933997,0,EbonyTotem,Talk:Anarchism,/* A proposed guideline to capitalism and an-cap in Anarchism article */
2007-11-20T08:23:48+00:00,172666017,172665867,0,GlobeGores,Talk:Anarchism,"moved [[Talk:IT'S ANARCHY, BABY!!! YEAH!!! WEEEEEEEEEEEEEEEEEEEEEEEEEEEEEEEEEEEEEEEEE!!! GRAWP DESTROY WIKI INFRASTRUCTURE. GRAWP NOT KNOW WHAT THAT WORD MEANS. GRAWP CONFUSED.]] to [[Talk:Anarchism]] over redirect: revert"
2008-04-13T07:24:41+00:00,205285896,204317655,0,67.5.156.237,Talk:Anarchism,/* Definition of state in regards to anarchism. */ new section
2007-03-10T05:59:00+00:00,114008802,113189611,0,KSchutte,Talk:Anarchism,
2007-05-04T21:42:26+00:00,128300544,128190732,0,Leutha,Talk:Anarchism,/* Weird Eurocentrism section in race */
2006-09-14T23:56:14+00:00,75792917,75788671,0,The Ungovernable Force,Talk:Anarchism,/* Neutral Disambiguation Page */
2008-10-01T13:49:47+00:00,242245891,242146961,0,Skomorokh,Talk:Anarchism,/* Anarcho-Syndicalism and Communism */ clarified
2008-03-25T02:44:40+00:00,200705010,200604300,0,Zazaban,Talk:Anarchism,/* 1999 WTO riot/protest */
2008-09-03T02:56:26+00:00,235953190,235950717,0,Pgan002,Talk:Anarchism,/* Definitions of anarchism */
2007-02-12T15:57:03+00:00,107579802,107578542,0,Anarcho-capitalism,Talk:Anarchism,"/* Non-standard use of the term ""socialism"" by Tucker */"
2008-05-18T03:02:47+00:00,213172581,212403251,0,Chuck0,Talk:Anarchism,editing to create an informal policy for reliable source on anarchist subjects
2007-07-23T04:53:46+00:00,146460617,146435741,0,Full Shunyata,Talk:Anarchism,/* Intro cleanup */
2008-07-11T00:14:02+00:00,224918155,224307347,0,EbonyTotem,Talk:Anarchism,"/* Reliable Sources */ the word ""extremist"" is just a slur"
2006-11-25T08:02:19+00:00,89987875,89986964,0,Full Shunyata,Talk:Anarchism,"/* Perspective, and a proposal */"
2007-04-18T01:39:13+00:00,123696887,123596717,0,Jacob Haller,Talk:Anarchism,Globalization
2006-07-05T21:43:57+00:00,62258456,62258346,0,Beeboe,Talk:Anarchism,/* Placement of Ancap */
2007-11-13T04:27:01+00:00,171129966,170812350,0,Chuck0,Talk:Anarchism,
2007-07-31T12:31:03+00:00,148257851,148255586,0,Jacob Haller,Talk:Anarchism,"/* Defining ""(hierarchical) authority"" */"
2007-09-29T18:18:19+00:00,161157041,161156433,0,Jacob Haller,Talk:Anarchism,"/* Individualist Anarchism and ""Anarcho-capitalism"" */"
2006-07-01T16:45:10+00:00,61559312,61559151,0,Owen,Talk:Anarchism,"/* Proudhon and ""statist capitalism"" */"
2006-07-11T20:08:41+00:00,63284345,63046822,0,Drowner,Talk:Anarchism,
2009-03-26T00:43:32+00:00,279706466,279640613,0,Zazaban,Talk:Anarchism,/* Justice */
2007-05-28T15:27:35+00:00,134092034,134091694,0,AndrewFleming72,Talk:Anarchism,forgot to sign
2006-09-07T22:10:50+00:00,74412945,74410388,0,Blockader,Talk:Anarchism,/* I protected the page */
2007-07-05T10:23:27+00:00,142637831,142637604,0,Nepstad,Talk:Anarchism,
2007-01-01T23:17:22+00:00,97816792,97693455,0,Urthogie,Talk:Anarchism,devoting my energies to [[Anarchy]]
2006-09-03T02:09:35+00:00,73502088,73496911,0,Whiskey Rebellion,Talk:Anarchism,/* Here is the section */
2007-08-02T18:46:21+00:00,148771512,148748104,0,PhilLiberty,Talk:Anarchism,/* Alternatives */
2010-02-09T22:43:59+00:00,343028823,343010305,0,Dronkle,Talk:Anarchism,/* class war */ Was the lettering hte CW logo?
2007-05-17T21:18:17+00:00,131633500,131625896,0,Infinity0,Talk:Anarchism,/* source spam */
2007-05-20T00:49:26+00:00,132118994,131980921,0,Etcetc,Talk:Anarchism,/* source spam */
2008-03-17T19:20:15+00:00,198920780,198920569,0,Zazaban,Talk:Anarchism,/* Current discussion */ Moving to the bottom of the page.
2006-06-29T01:34:08+00:00,61120295,61120245,0,Owen,Talk:Anarchism,"/* Proudhon and ""statist capitalism"" */"
2009-12-17T04:26:05+00:00,332207454,332206895,0,Skomorokh,Talk:Anarchism,/* Accurate reporting */ re
2006-07-14T04:06:35+00:00,63725543,63714377,0,The Ungovernable Force,Talk:Anarchism,"/* can you show this, Ungovernable Force? */"
2007-01-16T14:39:47+00:00,101100843,101069703,0,Urthogie,Talk:Anarchism,/* Merge [[Anarchy]] into [[Anarchism]]? */ reply
2009-11-20T01:47:39+00:00,326848523,325895998,0,Eduen,Talk:Anarchism,/* Sad */
2009-02-13T00:07:40+00:00,270333200,269602336,0,RFC bot,Talk:Anarchism,removing old RFC
2007-08-07T02:05:49+00:00,149673487,149661703,0,Operation Spooner,Talk:Anarchism,/* Individualist anarchism section */
2007-01-24T05:12:55+00:00,102844502,102844295,0,Anarcho-capitalism,Talk:Anarchism,/* Voluntary servitude */
2006-10-25T18:44:02+00:00,83685856,83684304,0,Anarcho-capitalism,Talk:Anarchism,"/* Definitions, history, Tucker */"
2006-06-22T23:35:37+00:00,60084191,60082183,0,Born2cycle,Talk:Anarchism,"/* Capitalism, an institution? */"
2006-08-16T06:54:14+00:00,69967009,69966939,0,That'sHot,Talk:Anarchism,/* Sources for anarcho-capitalism being a form of individualist anarchism */
2006-11-13T01:26:42+00:00,87446941,87415016,0,Anarcho-capitalism,Talk:Anarchism,/* Anarcho-Capitalism */
2009-10-18T09:01:17+00:00,320566463,320566408,0,Macai,Talk:Anarchism,/* On anarchist sectarianism */
2008-07-28T05:42:59+00:00,228332992,228332703,0,Chuck0,Talk:Anarchism,/* 1999 WTO PRotest */
2007-10-06T11:50:28+00:00,162646530,162580731,0,Skomorokh,Talk:Anarchism,huh?
2008-03-30T02:18:31+00:00,201954450,201800359,0,Equazcion,Talk:Anarchism,
2007-04-11T04:29:25+00:00,121865629,121865534,0,Xcentaur,Talk:Anarchism,/* Merger of history and origin */ sign
2008-02-26T19:10:38+00:00,194226098,194222323,0,Aelffin,Talk:Anarchism,/* Scholarly Resources */  Taking off single-editor opinionation icons.
2008-05-22T16:29:03+00:00,214218431,214217854,0,Operation Spooner,Talk:Anarchism,/* Anarchism and Property */
2009-01-12T12:54:36+00:00,263576124,263575968,0,Maziotis,Talk:Anarchism,/* Link between anarchism and libertarianism in the article */
2007-11-01T05:07:01+00:00,168454713,168453649,0,Vert et Noir,Talk:Anarchism,fixlink
2006-08-31T13:15:03+00:00,73017812,72993302,0,Memotype,Talk:Anarchism,/* [[User:DTC]] referred to [[WP:AN/I]] */ comment
2006-07-10T14:13:47+00:00,63046822,63044812,0,AaronS,Talk:Anarchism,/* Length reduction */ a bit more detail
2008-05-20T12:05:25+00:00,213685044,213683151,0,Aelffin,Talk:Anarchism,/* Anarchism and Property */
2008-02-24T06:09:02+00:00,193649317,193648889,0,Operation Spooner,Talk:Anarchism,/* Section title */
2006-07-16T14:00:20+00:00,64115823,64115366,0,Lingeron,Talk:Anarchism,/* Fact tags and one clarification */
2010-02-08T20:32:08+00:00,342770121,342769696,0,Zazaban,Talk:Anarchism,/* Biased  Source */
2007-01-07T14:24:51+00:00,99095255,98760412,0,Vision Thing,Talk:Anarchism,"/* Social Control, Hierarchy, and Authority */"
2007-11-13T05:56:47+00:00,171145889,171129966,0,Aelffin,Talk:Anarchism,/* Newer schools of thought */
2009-10-07T19:42:38+00:00,318515299,317956835,0,Zazaban,Talk:Anarchism,/* Regarding the photo */
2006-09-27T02:42:57+00:00,78030333,78028230,0,Hogeye,Talk:Anarchism,/* Unlock the article? */
2006-11-28T19:09:40+00:00,90716516,90715364,0,Intangible,Talk:Anarchism,"/* talk, and grammar, and spelling */"
2006-09-07T21:55:59+00:00,74410388,74409938,0,Donnachadelong,Talk:Anarchism,/* I protected the page */
2006-12-14T23:22:45+00:00,94391845,94385461,0,Libertatia,Talk:Anarchism,/* voluntary and compulsary communism */
2008-05-20T03:12:03+00:00,213623729,213622501,0,Aelffin,Talk:Anarchism,/* Reliable Sources */
2007-07-23T07:43:18+00:00,146481139,146478387,0,208.106.34.13,Talk:Anarchism and anarcho-capitalism,/* sections */
2007-02-26T15:54:13+00:00,111090578,111077649,0,Anarcho-capitalism,Talk:Anarchism and anarcho-capitalism,/* relative popularity of scholarly positions */
2008-09-25T18:05:50+00:00,240951305,240873023,0,Skomorokh,Talk:Anarchism and anarcho-capitalism,/* external links */ nyet
2009-07-15T15:19:23+00:00,302235202,240951305,0,Willy turner,Talk:Anarchism and anarcho-capitalism,
2007-05-31T17:20:54+00:00,134854535,134538615,0,Antonrojo,Talk:Anarchism and anarcho-capitalism,nowiki templates so this does not show up on the NPOV disputes list
2009-11-25T14:21:47+00:00,327864878,324998439,0,Yobot,Talk:Anarchism and anarcho-capitalism,"Tagging, Removed: |nested=yes (4), using [[Project:AutoWikiBrowser|AWB]]"
2007-05-27T13:11:38+00:00,133846319,133838842,0,Vision Thing,Talk:Anarchism and anarcho-capitalism,/* sections */
2007-12-19T23:41:22+00:00,179067870,179067561,0,SineBot,Talk:Anarchism and anarcho-capitalism,"Signing comment by [[User:208.78.145.1|208.78.145.1]] - ""/* Things to do */"""
2006-10-05T17:33:54+00:00,79682463,79682323,0,Blockader,Talk:Anarchism and anarcho-capitalism,/* Merge with Criticisms of anarcho-capitalism? */
2008-03-14T04:19:41+00:00,198124258,198124085,0,SineBot,Talk:Anarchism in the United States,"Signing comment by [[User:68.187.251.215|68.187.251.215]] - ""/* Disputed tag on Notable anarchists section */"""
2006-07-30T21:35:38+00:00,66744403,66743050,0,Intangible,Talk:Anarchism in the United States,/* Rothbard */
2007-02-07T21:23:07+00:00,106406377,105721611,0,Anarcho-capitalism,Talk:Anarchism in the United States,/* Productive editing */
2008-12-24T21:24:58+00:00,259962853,258516640,0,Skomorokh,Talk:Anarchism in the United States,assessed as start class - lenghty but lacking in sources
2007-05-16T23:59:31+00:00,131422699,118494769,0,Gnome (Bot),Talk:Anarchism in the United States,Bot: replacing [[:Image:Murray Rothbard.JPG]] with [[:Image:NonFreeImageRemoved.svg]]... see [[Wikipedia:Non-free_content#Policy|our non-free content policy]]
2008-08-02T23:27:10+00:00,229488329,227117244,0,CalBears99,Talk:Anarchist communism,/* Is there a sign for Anarcho-Communism? */
2009-02-13T20:45:49+00:00,270519985,269840348,0,QFlux,Talk:Anarchist communism,/* Is this really original research? */ new section
2007-04-12T15:09:53+00:00,122234784,122233194,0,Libertatia,Talk:Anarchist communism,/* Anarcho-syndicalism */
2007-07-05T23:08:42+00:00,142773817,142771886,0,24.184.136.137,Talk:Anarchist communism,/* individualistic communalists */
2009-03-24T11:24:36+00:00,279341445,279341392,0,Skomorokh,Talk:Anarchist communism,/* Check anarcocomunismo (version of this article in spanish */ thanks
2009-08-14T23:37:17+00:00,308034580,299029306,0,Willy turner,Talk:Anarchist communism,
2006-08-15T00:11:34+00:00,69695906,69695466,0,71.72.24.14,Talk:Anarchist communism,
2006-09-06T18:50:16+00:00,74180546,69695906,0,201.235.193.58,Talk:Anarchist communism,differences with bakunin?
2006-10-20T20:15:31+00:00,82686941,79023477,0,Full Shunyata,Talk:Anarchist communism,P2P Production Economy
2008-03-27T10:32:40+00:00,201292364,188087485,0,Bobfrombrockley,Talk:Anarchist communism,"/* Libertarian communism, again */ new section"
2007-03-06T07:34:32+00:00,113015286,112926815,0,Chuck0,Talk:Anarchism in the United States,
2008-09-17T11:21:38+00:00,239001782,229488329,0,Sardanaphalus,Talk:Anarchist communism,"updating link, possibly some formatting  using [[Project:AutoWikiBrowser|AWB]]"
2008-04-26T19:30:49+00:00,208376371,208376169,0,SineBot,Talk:Anarcho-capitalism,"Signing comment by [[User:LoweLeif|LoweLeif]] - ""/* Merge */"""
2006-07-27T21:04:06+00:00,66231000,66227917,0,AaronS,Talk:Anarcho-capitalism,/* Libertatis Æquilibritas */
2008-09-24T05:59:13+00:00,240622824,235728053,0,88.117.79.145,Talk:Anarcho-capitalism,/* Copyrights */ new section
2006-07-19T02:10:08+00:00,64583795,64583622,0,Twobitsprite,Talk:Anarcho-capitalism,/* last paragraph of intro */ forgot login
2009-07-16T11:31:27+00:00,302398635,295966860,0,Willy turner,Talk:Anarcho-capitalism,
2009-06-12T12:40:16+00:00,295966860,295966672,0,SineBot,Talk:Anarcho-capitalism,"Signing comment by [[User:Trefork|Trefork]] - ""/* Origin */ new section"""
2009-05-13T16:05:59+00:00,289688614,276858913,0,Yobot,Talk:Anarcho-capitalism,"clean up, Removed: |nested=yes (3), using [[Project:AutoWikiBrowser|AWB]]"
2009-10-25T20:42:01+00:00,322001102,321981080,0,Knight of BAAWA,Talk:Anarcho-capitalism,/* Origin of term & controversy */
2007-05-01T17:04:32+00:00,127460077,127459005,0,Requestion,Talk:Anarcho-capitalism,rvv [[WP:UNDO|Undid]] revision 127459005 by [[Special:Contributions/198.86.93.76|198.86.93.76]] ([[User talk:198.86.93.76|talk]])
2008-11-01T01:36:56+00:00,248925707,248925566,0,SineBot,Talk:Anarcho-capitalism,"Signing comment by [[User:Porco-esphino|Porco-esphino]] - ""/* Cleanup-restructure */ new section"""
2009-11-22T22:23:26+00:00,327360983,323918579,0,Knight of BAAWA,Talk:Anarcho-capitalism,/* RFC for lede */ discussion appears over
2007-09-27T09:02:48+00:00,160656832,160656794,0,Nikzbitz,Talk:Anarcho-capitalism,[[WP:UNDO|Undid]] revision 160656794 by [[Special:Contributions/122.169.7.195|122.169.7.195]] ([[User talk:122.169.7.195|talk]])
2008-04-05T09:11:38+00:00,203485009,203483096,0,Lordmetroid,Talk:Anarcho-capitalism,/* Ron Paul and Murray Rothbard */
2007-01-09T00:26:09+00:00,99445230,97298626,0,Anarcho-capitalism,Talk:Anarcho-capitalism,/* Anarcho-capitalism and Individualist Anarchism */
2007-05-12T17:03:28+00:00,130355898,127460077,0,Cadby Waydell Bainbrydge,Talk:Anarcho-capitalism,
2010-02-02T16:51:54+00:00,341502579,337603239,0,Trust Is All You Need,Talk:Anarcho-capitalism,
2009-02-03T20:03:29+00:00,268313941,267641134,0,Renamed user e8LqRIqjJf2zlGDYPSu1aXoc,Talk:Anarcho-capitalism,removing shortcut that doesn't do anything
2006-11-10T09:18:42+00:00,86908240,86843802,0,NimNick,Talk:Anarcho-capitalism,/* market anarchism = */
2006-11-15T06:14:37+00:00,87933289,87501477,0,WillMagic,Talk:Anarcho-capitalism,/* RfC has been raised against {{User|Anarcho-capitalism}} */
2007-06-07T15:26:45+00:00,136613556,136611995,0,Etcetc,Talk:Anarcho-capitalism,
2007-02-18T04:44:07+00:00,108998971,108144762,0,Sjeng,Talk:Anarcho-capitalism,/* Consequentialist? */
2008-03-20T21:23:01+00:00,199681111,194226082,0,Skomorokh,Talk:Anarcho-capitalism,selected article
2009-03-12T23:24:02+00:00,276858913,276677369,0,Memotype,Talk:Anarcho-capitalism,/* Intro */
2007-03-23T16:10:03+00:00,117308042,117307587,0,Anarcho-capitalism,Talk:Anarcho-capitalism,/* Article far too large. Split! */
2008-12-26T12:13:57+00:00,260164492,260164397,0,SineBot,Talk:Anarcho-capitalism,"Signing comment by [[Special:Contributions/125.236.130.2|125.236.130.2]] - ""/* Reason why entire talk: page should be deleted */ new section"""
2009-11-04T17:10:02+00:00,323918579,323385711,0,RL0919,Talk:Anarcho-capitalism,/* RFC for lede */ comment
2006-10-20T16:28:12+00:00,82647936,82646952,0,Anarcho-capitalism,Talk:Anarcho-capitalism,/* So what's the dispute? */
2006-08-17T17:37:30+00:00,70263184,70157520,0,Joelr31,Talk:Anarcho-capitalism,typo
2009-09-09T01:05:44+00:00,312696720,312599663,0,MiszaBot I,Talk:Anarcho-capitalism,Archiving 2 thread(s) (older than 14d) to [[Talk:Anarcho-capitalism/Archive 20]].
2007-07-31T17:53:21+00:00,148315485,141923918,0,Operation Spooner,Talk:Anarcho-capitalism,
2007-04-01T21:15:59+00:00,119571420,118230598,0,John Carter,Talk:Anarcho-capitalism,changed 1.0 banner
2008-02-15T21:39:55+00:00,191727240,188228615,0,MelonBot,Talk:Anarcho-capitalism,Updating links to [[WP:PR|Peer review]] archives
2006-11-13T08:07:53+00:00,87501477,87292323,0,213.212.12.2,Talk:Anarcho-capitalism,/* market anarchism = */
2009-06-12T00:57:50+00:00,295890116,295775464,0,MiszaBot I,Talk:Anarcho-capitalism,Archiving 2 thread(s) (older than 14d) to [[Talk:Anarcho-capitalism/Archive 19]].
2007-05-17T23:35:49+00:00,131661076,131496208,0,Infinity0,Talk:Anarcho-capitalism,List of sockpuppets
2007-07-02T02:12:02+00:00,141923918,141796338,0,Intangible2.0,Talk:Anarcho-capitalism,/* Currency */
2008-01-12T23:03:58+00:00,183927644,183826499,0,Skomorokh,Talk:Anarcho-capitalism,anarcho-article March 2007
2007-12-22T01:37:47+00:00,179506330,179155589,0,Skomorokh,Talk:Anarcho-capitalism,"nested wikiprojects, rated as FA class, high importance for [[WP:ATF]]"
2009-11-01T11:56:52+00:00,323263271,323214223,0,Knight of BAAWA,Talk:Anarcho-capitalism,/* RFC for lede */
2008-09-02T02:32:45+00:00,235728053,234840192,0,EVCM,Talk:Anarcho-capitalism,
2008-07-27T06:40:58+00:00,228144871,228141167,0,Skomorokh,Talk:Anarcho-capitalism,"/* Anarcho-capitalism is economical plutarchy, and thus not anarchism */ urgh"
2009-02-19T08:32:46+00:00,271780251,268313941,0,Sunray,Talk:Anarcho-capitalism,change to lead
2007-12-29T14:36:18+00:00,180800044,179506330,0,Geometry guy,Talk:Anarcho-capitalism,/* Intro */ null edit
2008-02-26T19:10:33+00:00,194226082,191727240,0,Lapafrax,Talk:Anarcho-capitalism,
2008-08-05T06:36:02+00:00,229932854,229629164,0,Nsaa,Talk:Anarcho-capitalism,/* Refimprove? */ new section
2008-08-11T02:59:04+00:00,231150476,229932854,0,4.225.5.147,Talk:Anarcho-capitalism,/* Anarcho-capitalism and Individualist Anarchism */
2007-01-27T03:07:31+00:00,103527988,102986979,0,The Placebo Effect,Talk:Anarcho-capitalism,adding old ids
2006-06-30T17:05:42+00:00,61400779,61399385,0,MrVoluntarist,Talk:Anarcho-capitalism,"/* ""Individualist anarchism"" label */"
2007-11-29T12:44:46+00:00,174584449,174583885,0,Lordmetroid,Talk:Anarcho-capitalism,/* Large swaths of original research */
2006-08-22T20:39:15+00:00,71238302,70263184,0,Supersheep,Talk:Anarcho-capitalism,
2007-12-14T01:13:18+00:00,177788135,174584449,0,Skomorokh,Talk:Anarcho-capitalism,Invitation to Anarchism Taskforce
2009-03-05T03:24:02+00:00,275087526,275067167,0,Libertatia,Talk:Anarcho-capitalism,/* Merge proposal */
2006-08-25T17:46:53+00:00,71846811,71842618,0,DTC,Talk:Anarcho-capitalism,/* Anarchism and anarcho-capitalism */
2006-06-23T03:34:09+00:00,60113140,60049185,0,Bob A,Talk:Anarcho-capitalism,/* Somalia section split */
2009-03-03T02:18:58+00:00,274593215,274592659,0,Jadabocho,Talk:Anarcho-capitalism,/* Merge proposal */
2007-05-30T17:11:51+00:00,134602198,134502186,0,Jacob Haller,Talk:Anarcho-capitalism,/* Sources */
2006-11-05T16:52:47+00:00,85869166,85867271,0,RayBirks,Talk:Anarcho-capitalism,/* anarchist symbol */
2007-11-12T02:52:11+00:00,170885202,169464102,0,Voot42,Talk:Anarcho-capitalism,
2010-01-13T14:59:30+00:00,337603239,327360983,0,Magioladitis,Talk:Anarcho-capitalism,"clean up -test edits, {{tl|talk header}} given top billing, {{tl|skip to talk}} given top billing using [[Project:AWB|AWB]]"
2007-11-02T13:59:18+00:00,168724884,168720994,0,Mr. Quertee,Talk:Anti-capitalism,moved [[Talk:Anti-capitalism 41]] to [[Talk:Anti-capitalism]] over redirect: revert
2008-09-14T08:42:50+00:00,238321672,238321520,0,SineBot,Talk:Anti-capitalism,"Signing comment by [[Special:Contributions/71.241.217.171|71.241.217.171]] - ""/* Fascism and socialism */"""
2006-06-23T21:59:47+00:00,60241977,60232975,0,Courtland Nerval,Talk:Ayn Rand,/* Consensus on influences and influenced lists. */
2009-08-11T02:35:07+00:00,307286109,307285945,0,RLCampbell,Talk:Ayn Rand,/* A Couple More Things */
2007-05-18T21:26:51+00:00,131869289,131774631,0,DAGwyn,Talk:Ayn Rand,/* Lead paragraph */
2008-05-16T08:37:28+00:00,212794981,212794869,0,SineBot,Talk:Ayn Rand,"Signing comment by [[Special:Contributions/12.217.253.19|12.217.253.19]] - ""/* Open issues, April 2008 */"""
2007-06-26T01:33:42+00:00,140648036,140621030,0,ThAtSo,Talk:Ayn Rand,
2007-09-02T16:43:24+00:00,155236798,155235991,0,DAGwyn,Talk:Ayn Rand,/* Rand's views on the initiation of force */
2008-09-03T20:35:11+00:00,236096826,234242362,0,DAGwyn,Talk:Ayn Rand,/* Homophobia? */
2009-11-20T20:19:34+00:00,326986748,326936658,0,RL0919,Talk:Ayn Rand,/* Sacrificing others */ better
2009-07-29T14:28:50+00:00,304885397,304839722,0,Idag,Talk:Ayn Rand,/* Biography/Philosophy rankings */ r
2006-10-03T07:12:25+00:00,79202792,79193693,0,70.187.149.10,Talk:Ayn Rand,"/* ""Lay"" philosopher */"
2007-12-17T21:59:56+00:00,178586695,177042837,0,Fredrick day,Talk:Ayn Rand,/* Major inroad. */ new section
2009-02-12T02:33:24+00:00,270140858,270137525,0,Idag,Talk:Ayn Rand,Fixing Archive box
2010-01-29T00:12:47+00:00,340624778,340623601,0,RL0919,Talk:Ayn Rand,Reverted 1 edit by [[Special:Contributions/Njbbop09|Njbbop09]] identified as [[WP:VAND|vandalism]] to last revision by [[User:MiszaBot I|MiszaBot I]]. ([[WP:TW|TW]])
2007-03-23T13:46:08+00:00,117280749,116862363,0,Givegains,Talk:Ayn Rand,GA in zh.wikipedia
2008-06-27T15:22:08+00:00,222096927,222089972,0,TallNapoleon,Talk:Ayn Rand,/* The Atlasphere */
2007-11-15T19:07:03+00:00,171719321,170934024,0,Blanchette,Talk:Ayn Rand,Removed obsolete to-do list. What was proposed and had a consensus was accomplished.
2009-04-06T18:17:18+00:00,282157805,282157715,0,CABlankenship,Talk:Ayn Rand,/* The general distribution of Objectivist content on Wikipedia */
2007-09-08T07:20:03+00:00,156439514,156438453,0,Tragic romance,Talk:Ayn Rand,/* Deeply in love? */
2008-11-28T03:08:49+00:00,254538093,254260041,0,Kjaer,Talk:Ayn Rand,/* Last name */ Ayn Rand O'Connor on official statement
2009-11-01T18:37:36+00:00,323316438,320606429,0,Skomorokh,Talk:Ayn Rand,/* Exciting times */ new section
2009-07-08T01:08:19+00:00,300906089,300905600,0,J Readings,Talk:Ayn Rand,"Putting it back to ""Mid"" -- the neutral mid-way point that will probably satisfy all parties involved as a reasonable compromise"
2010-01-07T13:11:00+00:00,336390543,335652538,0,Karbinski,Talk:Ayn Rand,/* Polemical Cruft */ new section
2009-12-08T10:44:26+00:00,330435989,326986748,0,121.202.252.121,Talk:Ayn Rand,
2006-07-10T14:21:57+00:00,63047905,63046624,0,Lulu of the Lotus-Eaters,Talk:Capitalism,place+time
2008-04-18T18:33:11+00:00,206541069,206207429,0,131.91.137.196,Talk:Capitalism,/* Merge from */
2006-10-28T03:38:44+00:00,84174038,83992599,0,134.117.157.66,Talk:Capitalism,"/* ""...totally sucks"" */"
2009-10-11T16:02:50+00:00,319247738,319065281,0,Richard,Talk:Capitalism,/* Capitalism */ [[WP:NOTSOAPBOX]]
2007-11-08T07:56:41+00:00,170057120,170031903,0,Red Deathy,Talk:Capitalism,[[WP:UNDO|Undid]] revision 170031903 by [[Special:Contributions/71.112.182.126|71.112.182.126]] ([[User talk:71.112.182.126|talk]])
2009-12-31T11:50:18+00:00,335092462,335092238,0,Pachang,Talk:Capitalism,/* Capital */
2009-02-18T04:01:12+00:00,271501158,271501054,0,Scam-Wow,Talk:Capitalism,/* Laissez-faire */
2007-03-13T11:54:53+00:00,114776529,114773283,0,172,Talk:Capitalism,
2007-01-09T05:41:06+00:00,99502215,99501840,0,Grant65,Talk:Capitalism,/* Capitalism and anti-semitism */
2007-05-01T20:38:58+00:00,127510961,126173420,0,Northmeister,Talk:Capitalism,article flaws
2009-05-02T23:28:02+00:00,287539708,286021121,0,Nsaa,Talk:Capitalism,/* First usage of Capitalism */ new section
2008-12-06T16:12:17+00:00,256247183,256029357,0,Singwaste,Talk:Capitalism,/* Capitalism coined by Karl Marx */ new section
2008-11-19T23:07:12+00:00,252877781,252877633,0,72.228.150.44,Talk:Capitalism,/* Merge from */
2007-07-10T17:06:13+00:00,143764361,143574639,0,Blues Runner,Talk:Capitalism,/* Contested definitions */
2009-09-27T00:55:24+00:00,316400473,316400353,0,The Four Deuces,Talk:Capitalism,/* Capitalism */
2008-12-23T17:18:30+00:00,259746462,259672102,0,Jadabocho,Talk:Capitalism,/* The introduction will be replaced */
2007-02-20T12:38:19+00:00,109542560,108115227,0,Slrubenstein,Talk:Capitalism,supporters of capitalism
2009-10-23T15:53:23+00:00,321591038,321181120,0,The Four Deuces,Talk:Capitalism,/* Icon */
2010-01-04T11:52:47+00:00,335794932,335794824,0,SineBot,Talk:Capitalism,"Signing comment by [[Special:Contributions/62.30.29.179|62.30.29.179]] - ""/* A couple reasonable compromise options */"""
2009-10-16T03:08:10+00:00,320144570,320124686,0,Werdnabot,Talk:Capitalism,Automated archival of 1 sections to [[Talk:Capitalism/Archive 26]]
2008-02-27T02:30:20+00:00,194327364,194327147,0,Gary,Talk:Capitalism,/* Good article nomination */ new section
2009-02-18T16:54:21+00:00,271600063,271586021,0,Fubar Obfusco,Talk:Capitalism,/* Laissez-faire */ Don't mistake a slur for an actual position.
2007-05-09T07:46:52+00:00,129462497,129370661,0,Red Deathy,Talk:Capitalism,/* Contradiction in the criticisms */
2007-12-12T23:36:51+00:00,177541197,177310492,0,Gregbard,Talk:Capitalism,social and political philosophy  using [[Project:AutoWikiBrowser|AWB]]
2007-05-20T18:53:53+00:00,132267135,131902055,0,Turgrid,Talk:Capitalism,/* Where is Ayn Rand? */
2006-10-04T08:48:15+00:00,79422349,79414372,0,Popeye2,Talk:Capitalism,/* New def. attempt */
2009-06-02T13:49:09+00:00,293943485,293934833,0,Polbot,Talk:Capitalism,AMG template cleanup per [[Wikipedia:Bot_requests#URL_change_for_Template:Amg_movie_.26_Template:Amg_name]] using [[Project:AutoWikiBrowser|AWB]]
2007-05-19T00:29:05+00:00,131902055,130804829,0,John254,Talk:Capitalism,Reverted edits by [[Special:Contributions/In Capitalism We Trust|In Capitalism We Trust]] ([[User talk:In Capitalism We Trust|talk]]) to last version per [[Wikipedia:Banning_policy#Enforcement_by_reverting_edits]].
2006-12-23T23:52:12+00:00,96185487,96184853,0,Dullfig,Talk:Capitalism,/* New Article Proposal -- [[Anti-capitalism and antisemitism]] */
2006-09-13T15:44:08+00:00,75522157,75245327,0,Economizer,Talk:Capitalism,/* Hoag textbook */
2007-11-28T02:16:19+00:00,174277640,174277531,0,68.54.160.137,Talk:Capitalism,"/* Question on the deaths ""Caused by Capitalism"" */"
2009-09-16T10:23:25+00:00,314315372,314120265,0,Yobot,Talk:Capitalism,"Tagging, Removed: |nested=yes (4), using [[Project:AutoWikiBrowser|AWB]]"
2009-03-19T04:02:12+00:00,278267271,278264749,0,Cosmic Latte,Talk:Capitalism,"/* The Communism page is on lockdown, can the Capitalism page be on lockdown too? */ reply"
2009-12-11T02:45:45+00:00,331009629,331008553,0,Unfree,Talk:Capitalism,Isn't capitalism about corporate enterprise?
2009-07-01T15:36:20+00:00,299707783,299707084,0,Red Deathy,Talk:Capitalism,[[WP:UNDO|Undid]] revision 299707084 by [[Special:Contributions/UTWAT|UTWAT]] ([[User talk:UTWAT|talk]])
2007-04-26T16:44:15+00:00,126173420,124015625,0,John Carter,Talk:Capitalism,B class for 1.0
2010-01-06T06:23:10+00:00,336154809,336148481,0,Soxwon,Talk:Capitalism,/* The End of Work */
2006-11-22T17:12:06+00:00,89477123,89476406,0,Improper Bostonian,Talk:Capitalism,/* Lead para */
2007-07-18T12:44:14+00:00,145426613,145415277,0,JoeCarson,Talk:Capitalism,/* Mostly private */
2008-03-10T17:07:56+00:00,197266797,197266662,0,70.49.208.207,Talk:Capitalism,
2006-07-08T22:25:02+00:00,62785572,62767189,0,172,Talk:Capitalism,/* Ideology and history */
2009-11-28T03:58:10+00:00,328318930,328194514,0,Stars4change,Talk:Capitalism,/* Bruce Scott */
2007-09-27T03:03:20+00:00,160617269,160571775,0,Slrubenstein,Talk:Capitalism,Reverted edits by [[Special:Contributions/68.48.79.117|68.48.79.117]] ([[User talk:68.48.79.117|talk]]) to last version by Bobo192
2006-09-19T19:40:41+00:00,76641981,76637456,0,Mrdthree,Talk:Capitalism,/* Is a corporation a public or private entity? */
2009-05-25T01:12:31+00:00,292128869,292128748,0,Stars4change,Talk:Capitalism,/* The Goose-Step */
2009-07-29T00:34:44+00:00,304782288,304772345,0,Slrubenstein,Talk:Capitalism,/* Major edit of Perspectives */
2008-07-04T10:24:30+00:00,223503436,223503327,0,SineBot,Talk:Capitalism,"Signing comment by [[Special:Contributions/80.254.147.100|80.254.147.100]] - ""/* Edits */"""
2009-01-01T18:15:18+00:00,261293863,261287394,0,Slrubenstein,Talk:Capitalism,/* Contradictory section */
2006-06-14T13:15:02+00:00,58571677,58530200,0,Christofurio,Talk:Capitalism,/* Capitalism could also mean [[state]] (see [[capital punishment]]) */
2007-10-29T01:21:52+00:00,167750775,167750601,0,WJBscribe,Talk:Capitalism,Protected Talk:Capitalism: move protect [move=sysop]
2007-02-14T17:36:59+00:00,108115227,108112462,0,Netsumdisc,Talk:Capitalism,
2007-08-15T08:17:26+00:00,151346382,151346300,0,Red Deathy,Talk:Capitalism,/* Marx */
2006-07-12T08:25:00+00:00,63379440,63047905,0,Infinity0,Talk:Capitalism,/* Link to [http://www.mises.org Mises.org] */
2009-04-09T22:40:55+00:00,282863854,282863352,0,Jeff G.,Talk:Capitalism,Reverted edits by [[Special:Contributions/69.29.68.250|69.29.68.250]] to last revision by SineBot ([[WP:HG|HG]])
2009-04-25T10:35:59+00:00,286021121,286020996,0,SineBot,Talk:Capitalism,"Signing comment by [[Special:Contributions/76.104.160.142|76.104.160.142]] - ""/* EDIT */"""
2008-03-25T18:41:31+00:00,200856719,200856407,0,SineBot,Talk:Capitalism,"Signing comment by [[User:Honeydinner|Honeydinner]] - ""/* Definition of capitalism weak */ new section"""
2009-12-02T18:00:03+00:00,329279399,329276837,0,Stars4change,Talk:Capitalism,/* Private property */ Peanut Corp of America
2007-08-19T03:27:20+00:00,152171969,152171871,0,Hornplease,Talk:Capitalism,/* POV in Globalization section */ that was me.
2008-03-02T01:45:20+00:00,195236383,195041549,0,Wrad,Talk:Capitalism,GA fail
2010-01-27T02:29:34+00:00,340262450,340262298,0,Graham87,Talk:Capitalism,moved [[Capitalism/Talk]] to [[Talk:Capitalism]] over redirect: revert
2009-06-27T07:44:08+00:00,298901124,298797436,0,MoralMoney,Talk:Capitalism,/* Force/Fraud */
2008-01-03T02:24:39+00:00,181768382,181710921,0,Kransky,Talk:Capitalism,/* Lead section */
2009-08-25T17:44:46+00:00,310008318,310007294,0,The Four Deuces,Talk:Capitalism,/* POV Intro */ Clarify type of RfC
2010-01-10T06:15:31+00:00,336950413,336903591,0,Nubeli,Talk:Capitalism,/* Sources in the Introduction */
2008-09-26T01:51:44+00:00,241038482,231667313,0,GimmeBot,Talk:Capitalism,GimmeBot updating {{ArticleHistory}}
2010-01-13T22:49:23+00:00,337688735,337617155,0,Spylab,Talk:Capitalism,"/* Illiteracy & Natural disasters etc */ deleted section that is not about improving this article.  See ""not a forum"" link at the top."
2006-11-12T06:31:49+00:00,87292496,86758357,0,Walkerma,Talk:Capitalism,To be included in Version 0.5
2007-03-31T15:59:21+00:00,119283795,117551021,0,John Carter,Talk:Capitalism,changed CD banner
2008-04-25T21:39:39+00:00,208200765,206541069,0,Jjdon,Talk:Capitalism,/* POV in Globalization section */
2006-10-25T22:11:12+00:00,83724332,83538068,0,Hires an editor,Talk:Capitalism,"/* ""...totally sucks"" */"
2009-11-09T20:14:12+00:00,324900163,324846864,0,Slrubenstein,Talk:Capitalism,/* labor markets */ new section
2006-08-15T01:54:07+00:00,69711936,69674921,0,Slrubenstein,Talk:Capitalism,/* Request for Portal */
2006-11-29T11:48:54+00:00,90883061,90880159,0,Ultramarine,Talk:Capitalism,/* Intro and caption */
2009-08-11T07:02:41+00:00,307316484,307316353,0,SineBot,Talk:Classical liberalism,"Signing comment by [[Special:Contributions/76.26.96.62|76.26.96.62]] - ""/* A reader's impression of this page */ new section"""
2008-05-25T12:48:59+00:00,214822701,213211441,0,Carolmooredc,Talk:Classical liberalism,WHO First Used the Actual Phrase When?
2008-08-26T05:32:32+00:00,234293144,234289188,0,JHP,Talk:Classical liberalism,"/* ""Governs least"" */ Thoreau is the true source, not Jefferson or Paine."
2007-04-03T15:14:07+00:00,119987470,119987071,0,24.249.100.227,Talk:Classical liberalism,/* Defining classical liberalism */
2010-01-23T07:10:50+00:00,339495866,339483729,0,The Four Deuces,Talk:Classical liberalism,/* New proposal */
2009-02-02T21:58:14+00:00,268117875,268117799,0,12.3.61.131,Talk:Classical liberalism,/* Samuel Freeman */
2008-01-02T07:07:01+00:00,181553916,181553627,0,SineBot,Talk:Classical liberalism,"Signing comment by [[User:71.123.139.248|71.123.139.248]] - ""/* OR & POV */ time to take a break on this section"""
2009-05-04T10:13:21+00:00,287817000,287816878,0,SineBot,Talk:Classical liberalism,"Signing comment by [[Special:Contributions/72.188.244.208|72.188.244.208]] - """""
2009-03-24T03:19:08+00:00,279295906,279295739,0,SineBot,Talk:Classical liberalism,"Signing comment by [[Special:Contributions/75.70.99.101|75.70.99.101]] - """""
2007-07-14T19:52:10+00:00,144654694,141709535,0,Nydas,Talk:Classical liberalism,kant quotation removal
2009-10-30T15:31:41+00:00,322935965,322934528,0,Vision Thing,Talk:Classical liberalism,/* Rename article */
2006-07-11T02:36:12+00:00,63156963,63153504,0,Kitteneatkitten,Talk:Classical liberalism,
2007-03-12T04:40:07+00:00,114467996,114467861,0,68.97.194.206,Talk:Classical liberalism,/* Key thinkers */
2009-09-10T18:06:06+00:00,313041824,312848991,0,Rick Norwood,Talk:Classical liberalism,/* Definition of classical liberalism */
2006-10-26T14:27:27+00:00,83846973,83728176,0,129.120.4.1,Talk:Classical liberalism,"/* Article is contradictory, not NPOV anymore */"
2007-10-16T05:49:26+00:00,164895136,164546920,0,BrendelSignature,Talk:Classical liberalism,/* OR & POV */ reply
2007-12-15T05:34:47+00:00,178029348,177869687,0,Dgw,Talk:Classical liberalism,[[Wikipedia:Template substitution|subst:'ing]]  using [[Project:AutoWikiBrowser|AWB]]
2009-09-15T13:43:56+00:00,314104081,314061864,0,Rick Norwood,Talk:Classical liberalism,/* Classical liberalism as defined in Modern political philosophy */
2006-09-22T03:54:14+00:00,77111516,76811910,0,Jmabel,Talk:Classical liberalism,"/* Merger with Libertarianism */ who exactly would be post-1930 examples of people who have been described as ""classical liberals"" but are ''not'' libertarians?"
2008-08-11T18:02:19+00:00,231274046,229050133,0,Jmabel,Talk:Classical liberalism,"/* ""Market liberalism"" */ new section"
2009-12-15T08:21:28+00:00,331774120,331773768,0,SlamDiego,Talk:Classical liberalism,/* Unacceptable source */
2009-06-25T14:42:32+00:00,298567121,292168449,0,Charles Edward,Talk:Classical liberalism,{{WPLibertarianism|class=start|importance=top}}
2009-12-14T03:35:53+00:00,331553799,331553314,0,SlamDiego,Talk:Classical liberalism,/* Unacceptable source */
2009-05-25T05:44:26+00:00,292168449,287817000,0,68.248.233.69,Talk:Classical liberalism,
2006-12-06T21:21:15+00:00,92542283,92541392,0,All Male Action,Talk:Classical liberalism,"/* POV, requiring more from the source. */"
2006-09-05T11:05:42+00:00,73926375,73873469,0,Mcduarte2000,Talk:Classical liberalism,/* Merger with Libertarianism */
2007-06-19T20:22:01+00:00,139278737,139278115,0,VersaWorka,Talk:Classical liberalism,/* criticism of libertarians as classical liberals */
2009-07-19T09:49:46+00:00,302919945,298567121,0,Willy turner,Talk:Classical liberalism,
2006-10-14T20:20:56+00:00,81455527,81400964,0,Robocracy,Talk:Classical liberalism,"/* POV, My view of this Article */"
2006-10-22T22:19:13+00:00,83085964,83062448,0,C-Liberal,Talk:Classical liberalism,/* The Libertarian Series */
2010-02-05T20:29:54+00:00,342158742,342158646,0,Can I touch it?,Talk:Classical liberalism,"/* Sources for Locke supporting minimized government intervention (""small gov,"" ""limited gov,"" etc) */"
2007-10-10T02:36:16+00:00,163480948,163480775,0,BrendelSignature,Talk:Classical liberalism,/* Defining classical liberalism */ c/e
2007-01-11T00:04:51+00:00,99879153,96647295,0,Heatherfire,Talk:Classical liberalism,Format adjustment?
2008-08-26T04:58:26+00:00,234289188,234288050,0,JHP,Talk:Classical liberalism,"/* ""Classical liberalism"" and libertarianism */"
2006-12-10T01:24:21+00:00,93264014,92542283,0,Jmabel,Talk:Classical liberalism,"/* POV, requiring more from the source. */ ""You are entitled to your own opinions, but you are not entitled to your own facts."""
2006-06-04T03:07:34+00:00,56765621,56764993,0,Intangible,Talk:Classical liberalism,/* Replacing this article with a redirect to [[libertarianism]] */
2006-06-29T13:32:29+00:00,61192026,61191498,0,C-Liberal,Talk:Classical liberalism,"/* Weak opening, not borne out by citation */"
2007-03-05T19:22:31+00:00,112870835,107617221,0,24.249.100.227,Talk:Classical liberalism,"/* Key thinkers */ -saving the page just incase the page is deleted, that way our hard work is not destroyed."
2006-08-17T15:18:58+00:00,70239016,70174299,0,Mrdthree,Talk:Classical liberalism,/* With regards to the bit at the top. */
2007-06-14T12:15:51+00:00,138115618,138108650,0,Earth,Talk:Classical liberalism,/* Milton Friedman */
2006-10-20T18:52:55+00:00,82672275,82229580,0,Harvestdancer,Talk:Classical liberalism,The Libertarian Series
2007-02-12T18:49:12+00:00,107617221,107617174,0,HagermanBot,Talk:Classical liberalism,"[[Special:Contributions/24.249.100.227|24.249.100.227]] didn't sign: ""/* POV, requiring more from the source. */ """
2010-01-05T05:02:45+00:00,335947866,335947140,0,The Four Deuces,Talk:Classical liberalism,/* External links cleanup needed */
2009-10-12T21:15:36+00:00,319499017,319457219,0,Snowded,Talk:Classical liberalism,/* Merger proposal */
2006-08-23T12:12:50+00:00,71366274,71248276,0,Slizor,Talk:Classical liberalism,/* Classical Liberalism and Modern Liberalism */
2006-08-21T20:32:04+00:00,71031407,70854415,0,CosmopolitanCapitalist,Talk:Classical liberalism,/* Classical Liberalism and Modern Liberalism */
2006-11-11T18:33:12+00:00,87177887,86854499,0,SFinside,Talk:Classical liberalism,Classical Liberalism and Libertarianism
2007-03-28T15:46:21+00:00,118536487,114467996,0,61.2.65.74,Talk:Classical liberalism,/* Format adjustment? */
2006-11-14T00:27:32+00:00,87652349,87651843,0,SFinside,Talk:Classical liberalism,"/* Classical Liberalism, Libertarianism, and the Quality of the Article */"
2006-10-15T11:52:36+00:00,81578068,81528680,0,Slizor,Talk:Classical liberalism,/* Freeman */
2006-12-27T01:04:02+00:00,96647295,96646318,0,Jmabel,Talk:Classical liberalism,"/* laissez-faire */ To say that ''The American Prospect'', Alan Dawley, William Novak and Antonio Gramsci erred in using a term is quite an assertion."
2009-09-24T20:40:49+00:00,315989485,315980465,0,Andrew Levine,Talk:Classical liberalism,/* Libertarianism as a specific type of classical liberalism */
2010-01-18T13:43:42+00:00,338550493,338548014,0,Rick Norwood,Talk:Classical liberalism,/* Wikipedia editors need to write well. */ new section
2007-01-29T18:06:09+00:00,104131074,104131003,0,HagermanBot,Talk:Classical liberalism,"[[Special:Contributions/24.249.100.227|24.249.100.227]] didn't sign: ""/* Format adjustment? */ """
2006-10-13T08:39:25+00:00,81175444,80781458,0,Robocracy,Talk:Classical liberalism,"/* POV, My view of this Article */"
2006-11-22T17:12:38+00:00,89477249,89422835,0,SFinside,Talk:Classical liberalism,/* changes */
2009-10-03T21:23:57+00:00,317715872,317691981,0,Rick Norwood,Talk:Classical liberalism,/* Classical liberalism as defined in Modern political philosophy */
2006-11-07T05:28:48+00:00,86215826,85585667,0,71.15.112.129,Talk:Classical liberalism,/* I emailed the professors who wrote about Liberalism for Stanford */
2006-10-23T01:20:15+00:00,83116819,83116425,0,71.15.117.251,Talk:Classical liberalism,/* The Libertarian Series */
2009-09-08T23:24:28+00:00,312681186,312680529,0,Rick Norwood,Talk:Classical liberalism,/* Definition of classical liberalism */
2008-07-31T17:06:40+00:00,229050133,229049917,0,SineBot,Talk:Classical liberalism,"Signing comment by [[User:Meltwaternord|Meltwaternord]] - ""/* WHO First Used the Actual Phrase When? */"""
2006-08-15T06:51:14+00:00,69750958,69750596,0,CosmopolitanCapitalist,Talk:Classical liberalism,/* Did some work on the thinkers */
2006-08-08T16:00:38+00:00,68421730,68419701,0,C-Liberal,Talk:Classical liberalism,/* e.a.? */
2006-10-11T08:55:16+00:00,80781458,80781122,0,Kitteneatkitten,Talk:Classical liberalism,"/* POV, My view of this Article */"
2006-09-02T13:15:32+00:00,73393158,73389681,0,Slizor,Talk:Classical liberalism,/* Definition of Classical Liberalism */
2009-12-11T00:56:02+00:00,330986998,330603673,0,Lawrencekhoo,Talk:Classical liberalism,/* Unacceptable source */
2006-09-05T02:49:14+00:00,73873469,73872850,0,C-Liberal,Talk:Classical liberalism,"/* Jefferson and Paine were not libertarians, and the article should not imply they were */"
2009-08-23T19:43:31+00:00,309649524,309645807,0,Introman,Talk:Classical liberalism,/* POV */
2009-08-29T18:29:35+00:00,310751455,310748302,0,Introman,Talk:Classical liberalism,/* Keeping the article referenced */ missing word
2008-04-25T18:02:27+00:00,208155299,208155083,0,SineBot,Talk:Classical liberalism,"Signing comment by [[User:Ehasl|Ehasl]] - ""/* Invalid argument */ new section"""
2006-08-03T05:23:55+00:00,67384974,67384592,0,Jmabel,Talk:Classical liberalism,e.a.?
2007-01-25T08:00:12+00:00,103101006,102969801,0,All Male Action,Talk:Classical liberalism,
2006-09-01T03:57:12+00:00,73160801,73155267,0,Coningsby,Talk:Classical liberalism,/* Merger with Libertarianism */
2006-11-24T19:36:08+00:00,89876446,89477249,0,Jmabel,Talk:Classical liberalism,Page now semi-protected
2006-12-04T00:51:52+00:00,91896239,91807498,0,All Male Action,Talk:Classical liberalism,"/* POV, requiring more from the source. */"
2006-11-29T22:22:50+00:00,91009259,90685073,0,LP6ugh2TsT,Talk:Classical liberalism,/* Help has arrived! */
2009-12-05T14:05:00+00:00,329871687,329813024,0,209.217.195.179,Talk:Classical liberalism,/* Unacceptable source */
2006-11-17T13:23:53+00:00,88416575,88416307,0,SFinside,Talk:Classical liberalism,"/* Quoting ""classical liberals"" or referencing their ideas is original research unless a source says those particular ideas are part of ""classical liberalism"" */"
2006-11-17T20:53:57+00:00,88491163,88491035,0,SFinside,Talk:Classical liberalism,/* changes */
2010-01-20T10:04:23+00:00,338928377,338917031,0,Lawrencekhoo,Talk:Classical liberalism,/* John Locke */
2008-06-15T07:57:01+00:00,219449455,219449404,0,Pherrmann,Talk:Collectivism (disambiguation),/* early socialists */
2007-03-27T20:35:20+00:00,118347490,93111855,0,Cberlet,Talk:Collectivism (disambiguation),RFM filed for this and other related pages
2009-02-27T09:05:39+00:00,273618103,219449455,0,Gregbard,Talk:Collectivism (disambiguation),phil
2007-07-27T12:57:04+00:00,147440421,130951563,0,Daniel,Talk:Collectivism (disambiguation),"Remove template, mediation closed"
2007-11-02T05:07:37+00:00,168670993,163291266,0,Gregbard,Talk:Collectivism (disambiguation),ethics  using [[Project:AutoWikiBrowser|AWB]]
2006-12-09T07:48:59+00:00,93111855,93111542,0,Lygophile,Talk:Collectivism (disambiguation),/* vertical collectivism */
2009-08-10T23:54:32+00:00,307265123,273618103,0,Willy turner,Talk:Collectivism (disambiguation),
2007-05-15T03:24:18+00:00,130951563,129282583,0,Yahel Guhan,Talk:Collectivism (disambiguation),/* vertical collectivism */
2007-05-08T17:02:12+00:00,129282583,129282531,0,HagermanBot,Talk:Collectivism (disambiguation),"[[User:Goalch|Goalch]] didn't sign: ""/* Articulating Divergent Views */ """
2006-07-30T15:51:40+00:00,66696313,66633637,0,Nikodemos,Talk:Collectivism (disambiguation),"/* Pejorative, perhaps? */"
2006-11-16T06:09:06+00:00,88155438,88155299,0,Full Shunyata,Talk:Collectivism (disambiguation),/* Articulating Divergent Views */
2006-07-16T18:12:29+00:00,64147207,62550794,0,Vision Thing,Talk:Collectivism (disambiguation),/* A Definition */
2007-04-25T20:03:12+00:00,125926850,125731072,0,Childhoodsend,Talk:Collectivism (disambiguation),/* Articulating Divergent Views */
2006-07-21T20:00:49+00:00,65088366,64147207,0,Vision Thing,Talk:Collectivism (disambiguation),/* A Definition */
2006-11-29T14:02:18+00:00,90898241,90898193,0,Red Deathy,Talk:Controlled market,/* Merger? */
2007-06-08T10:33:09+00:00,136803530,133920734,0,Dpotop,Talk:Corporatism,Corporations as unelected bodies
2009-03-17T05:19:15+00:00,277806151,277806112,0,SineBot,Talk:Corporatism,"Signing comment by [[Special:Contributions/158.104.212.123|158.104.212.123]] - """""
2008-05-02T19:16:11+00:00,209755660,209755583,0,RuediiX,Talk:Corporatism,/* Criticism Section is contradictory: Fix sig */
2008-05-01T05:43:55+00:00,209401128,182080410,0,SmackBot,Talk:Corporatism,Date the maintenance tags or general  fixes
2006-08-01T00:14:20+00:00,66950487,63109692,0,Varenius,Talk:Corporatism,/* Corporate State v. Corporations */
2009-04-28T03:40:30+00:00,286580387,286309120,0,Lastdescent,Talk:Corporatism,
2009-07-07T01:58:03+00:00,300714325,300673589,0,MiszaBot I,Talk:Corporatism,"Archiving 30 thread(s) (older than 120d) to [[Talk:Corporatism/Archive 1]], [[Talk:Corporatism/Archive 2]]."
2008-09-17T08:47:28+00:00,238984263,209755660,0,Sardanaphalus,Talk:Corporatism,"updating link, possibly some formatting  using [[Project:AutoWikiBrowser|AWB]]"
2009-10-12T20:41:10+00:00,319491786,311269852,0,Pollinosisss,Talk:Corporatism,
2007-02-04T17:43:47+00:00,105603667,105603460,0,Timeshifter,Talk:Corporatism,/* Reagan; Hoover inappropriate sources... */
2010-01-10T02:40:59+00:00,336923007,336879245,0,MiszaBot I,Talk:Corporatism,Archiving 2 thread(s) (older than 120d) to [[Talk:Corporatism/Archive 2]].
2006-12-15T03:38:03+00:00,94437884,94389018,0,Timeshifter,Talk:Corporatism,/* Free market criticisms */
2009-09-01T13:00:54+00:00,311269852,306607948,0,24.97.224.6,Talk:Corporatism,Questions about lack of US coverage
2006-05-22T13:58:13+00:00,54526382,54526341,0,Cberlet,Talk:Corporatism,format
2006-10-30T06:28:51+00:00,84573629,84572599,0,Timeshifter,Talk:Corporatism,/* Free market criticisms */
2007-12-17T08:01:39+00:00,178467337,178416986,0,Timeshifter,Talk:Corporatism,[[WP:UNDO|Undid]] revision 178416986 by [[Special:Contributions/70.49.89.71|70.49.89.71]] ([[User talk:70.49.89.71|talk]])
2008-11-30T17:39:04+00:00,255023141,254957198,0,Timeshifter,Talk:Corporatism,{{skiptotoctalk}}
2008-01-04T11:10:32+00:00,182080410,178467337,0,Gregbard,Talk:Corporatism,social and political philosophy  using [[Project:AutoWikiBrowser|AWB]]
2007-03-15T18:46:55+00:00,115371933,115319422,0,Timeshifter,Talk:Corporatism,/* Why is my link on corporatisme deleted? */
2006-11-14T07:53:09+00:00,87719481,87706371,0,Timeshifter,Talk:Corporatism,/* Mussolini quote has a fake cite */
2008-12-06T04:57:54+00:00,256179550,256178591,0,Zazaban,Talk:Egoist anarchism,/* List of articles that will need to be updated */
2009-04-09T00:20:30+00:00,282664587,270596478,0,Zazaban,Talk:Egoist anarchism,/* Glasgow anarchists. */ new section
2010-01-19T19:25:48+00:00,338806628,304535763,0,Jadabocho,Talk:Egoist anarchism,
2009-12-15T22:48:40+00:00,331895791,331895587,0,FormerIP,Talk:Fascism,/* Should have section on Hungarian Arrow Cross */ sp
2009-11-04T08:54:47+00:00,323861946,323860829,0,Yorkshirian,Talk:Fascism,+Laqueur
2008-07-20T13:03:09+00:00,226802009,226724257,0,Vision Thing,Talk:Fascism,/* Information Overload */
2007-10-11T00:11:05+00:00,163692468,161218393,0,Foxhunt king,Talk:Fascism,/* Paxton reference? */ new section
2007-06-25T01:29:17+00:00,140421008,140417259,0,Cberlet,Talk:Fascism,we simply disagree with you
2009-12-22T18:18:09+00:00,333319439,333306030,0,Collect,Talk:Fascism,/* Ku Klux Klan */ cmt
2008-03-04T16:37:57+00:00,195825090,195202953,0,Felneymike,Talk:Fascism,/* Fascism and racism (moved controversial statement) */
2007-11-30T08:25:56+00:00,174791266,174589740,0,Xx236,Talk:Fascism,/* Leon Trotsky */
2009-08-09T02:19:18+00:00,306899963,306893746,0,FormerIP,Talk:Fascism,/* Fuller proposal */
2006-11-06T03:02:11+00:00,85974113,85968985,0,Intangible,Talk:Fascism,/* Anti-Communism section */
2009-10-08T05:08:54+00:00,318604294,318603304,0,The Four Deuces,Talk:Fascism,[[WP:UNDO|Undid]] revision 318603304 by [[Special:Contributions/68.38.169.61|68.38.169.61]] rv vandalism
2009-12-18T04:17:21+00:00,332436414,332436302,0,The Four Deuces,Talk:Fascism,/* Ku Klux Klan */ unsigned
2006-08-20T17:56:23+00:00,70796855,70796634,0,Jmabel,Talk:Fascism,/* Unsolicited assessment */
2008-09-07T21:54:07+00:00,236942044,236941816,0,R-41,Talk:Fascism,/* OR with regard to the Fascist Negations */
2007-12-04T09:17:07+00:00,175678434,175612207,0,Xx236,Talk:Fascism,/* Wikipedia the fascist encyclopaedia */
2006-06-16T08:09:10+00:00,58909864,58834448,0,BenAveling,Talk:Fascism,/* scope of definition */ What do you suggest?
2007-02-03T07:27:58+00:00,105288750,105231351,0,66.141.164.32,Talk:Fascism,
2007-02-25T16:55:09+00:00,110853453,109956508,0,Cberlet,Talk:Fascism,Fascism and the political right
2008-05-27T11:02:59+00:00,215247119,215246688,0,Kyoodle,Talk:Fascism,/* Practical differences between Communism & Nazism */
2008-05-02T00:46:30+00:00,209592209,209507591,0,R2Parmly,Talk:Fascism,
2006-07-12T06:43:33+00:00,63370841,63243085,0,Lacatosias,Talk:Fascism,/* Disinformation */ copedit
2010-02-01T01:39:14+00:00,341195206,341195141,0,UberCryxic,Talk:Fascism,"/* No, fascism IS right-wing */"
2008-03-25T03:38:57+00:00,200714991,200714750,0,SineBot,Talk:Fascism,"Signing comment by [[Special:Contributions/67.162.55.61|67.162.55.61]] - ""/* Poetry as a source? */ new section"""
2009-01-21T19:31:55+00:00,265540294,265538322,0,SlamDiego,Talk:Fascism,/* one possible way to reorganize this all */
2009-05-22T15:21:31+00:00,291628375,291511730,0,The Four Deuces,Talk:Fascism,"/* First sentence of ""Fascism in the political spectrum"" */"
2007-03-29T16:40:59+00:00,118811855,118811407,0,Jmabel,Talk:Fascism,"/* Lead */ even in the lead we should distinguish between ""a narrow, uniform, 'purist' conception of fascism"" and ""a broader, more variegated conception of fascism""."
2007-09-02T08:23:13+00:00,155176027,154799334,0,Baltzegaurd,Talk:Fascism,
2008-01-09T17:57:15+00:00,183212891,183212514,0,SineBot,Talk:Fascism,"Signing comment by [[User:12.210.94.219|12.210.94.219]] - ""/* Liberalism and Fascism */"""
2007-12-25T19:42:46+00:00,180140875,180140680,0,SineBot,Talk:Fascism,"Signing comment by [[User:96.224.103.195|96.224.103.195]] - ""/* Are Fascism and Nazism forms of Socialism? */"""
2008-06-07T01:24:20+00:00,217658157,217658050,0,Arbiter099,Talk:Fascism,/* Socialism!? */
2009-10-26T08:00:32+00:00,322094659,322093835,0,70.190.167.1,Talk:Fascism,/* The view not being allowed */
2008-10-22T22:35:54+00:00,247049578,246792863,0,Valois bourbon,Talk:Fascism,
2010-02-10T11:51:07+00:00,343136383,343055617,0,Collect,Talk:Fascism,/* The intro needs a concise definition of fascism's nationalist social and political views like the intro has for fascism's economic views */
2007-04-29T05:21:53+00:00,126793293,126176237,0,Jfrascencio,Talk:Fascism,/* Collectivism */
2007-11-08T22:07:38+00:00,170187967,169751129,0,Vision Thing,Talk:Fascism,/* The term fascio */
2006-06-27T17:43:49+00:00,60871423,60831230,0,207.200.116.68,Talk:Fascism,/* Anti-rationalism */
2006-11-30T02:58:42+00:00,91069015,90470867,0,Jmabel,Talk:Fascism,/* More information of American fascism */ rm duplicate comment. I assume that the copy below was the intended one
2009-07-29T02:52:05+00:00,304800438,304769600,0,MiszaBot I,Talk:Fascism,"Archiving 5 thread(s) (older than 10d) to [[Talk:Fascism/Archive 30]], [[Talk:Fascism/Archive 29]]."
2009-08-24T14:05:45+00:00,309785568,309785322,0,SineBot,Talk:Fascism,"Signing comment by [[Special:Contributions/71.30.174.89|71.30.174.89]] - ""/* Jonah Goldberg */"""
2006-10-04T08:34:38+00:00,79420986,79385728,0,Lacatosias,Talk:Fascism,/* why no mention of the similarities between socialism and fascism */
2006-09-06T09:08:10+00:00,74101193,72417430,0,Lafem,Talk:Fascism,/* Removal */
2007-05-24T21:28:34+00:00,133265445,133265372,0,69.229.39.187,Talk:Fascism,/* PLEASE NOTE */
2009-05-29T20:42:47+00:00,293165949,293144736,0,The Four Deuces,Talk:Fascism,/* OED */
2009-11-12T23:55:06+00:00,325531482,325531243,0,SineBot,Talk:Fascism,"Signing comment by [[Special:Contributions/158.143.136.213|158.143.136.213]] - ""/* Extreme Right */"""
2009-04-21T06:49:34+00:00,285184084,285120559,0,PhilLiberty,Talk:Fascism,/* Corporatism */
2009-01-29T01:57:07+00:00,267103779,267079898,0,SlamDiego,Talk:Fascism,Fixed [[User:R-41|R-41]]'s molestation of my comment.  Created references section to silence diagnostic.
2008-04-25T02:11:06+00:00,208019789,207971774,0,Cold Porcelain,Talk:Fascism,/* Lead */
2006-08-06T10:55:20+00:00,67989699,67887430,0,Lacatosias,Talk:Fascism,
2008-12-18T01:13:12+00:00,258691870,258646602,0,Redthoreau,Talk:Fascism,adding wiki talk page reminders
2008-06-21T21:54:10+00:00,220844076,220767427,0,Cberlet,Talk:Fascism,"I happen to agree, but the ""controversial"" banner at the top of the page requests full and proper citations"
2008-02-23T18:53:23+00:00,193532889,193465888,0,Slrubenstein,Talk:Fascism,/* Are Fascism and Nazism forms of Socialism? */
2010-02-11T02:50:16+00:00,343277617,343177303,0,R-41,Talk:Fascism,/* The intro needs a concise definition of fascism's nationalist social and political views like the intro has for fascism's economic views */
2008-03-22T07:02:12+00:00,200021903,200021369,0,Qualcuno75,Talk:Fascism,/* What is that thing? */
2007-02-10T21:22:53+00:00,107160208,107158677,0,John K,Talk:Fascism,/* The New Deal */
2008-10-01T05:26:08+00:00,242174547,242046909,0,Mamalujo,Talk:Fascism,/* Removal of KKK section */ missing signature
2006-06-29T15:40:57+00:00,61211237,61203940,0,DNewhall,Talk:Fascism,
2008-07-07T00:52:20+00:00,224034788,224022089,0,Cberlet,Talk:Fascism,some interesting citations
2006-08-16T05:11:17+00:00,69956266,68775953,0,DNewhall,Talk:Fascism,
2009-02-26T12:04:40+00:00,273408317,273374121,0,Collect,Talk:Fascism,"/* Added that fascism was a ""radical"" authoritarian nationalist movement */ irredentist"
2010-01-25T17:24:23+00:00,339957020,339797907,0,RPuzo,Talk:Fascism,/* Fascism is on the Left */
2007-04-16T21:31:23+00:00,123358694,123352567,0,Intangible2.0,Talk:Fascism,/* Racism and fascism */ huh?
2009-04-29T00:15:18+00:00,286755836,286753044,0,Soxwon,Talk:Fascism,[[WP:UNDO|Undid]] revision 286753044 by [[Special:Contributions/86.148.145.120|86.148.145.120]] ([[User talk:86.148.145.120|talk]]) rv: not a forum and unconstructive
2007-12-15T22:10:43+00:00,178170381,178164506,0,Aecis,Talk:Fascism,Revert trolling
2008-10-02T02:37:17+00:00,242403868,242403698,0,SineBot,Talk:Fascism,"Signing comment by [[User:Bobisbob2|Bobisbob2]] - ""/* Fascist Movements Were Socialist in Nature */"""
2009-11-06T06:31:26+00:00,324231743,324208808,0,The Four Deuces,Talk:Fascism,"/* ""Fascism"" and ""submission"" */"
2010-02-06T19:32:30+00:00,342338765,342338691,0,Theosis4u,Talk:Fascism,/* Integrate Other Existing Wiki Pages On Fascism */
2009-06-25T18:14:26+00:00,298600801,298451328,0,Wwoods,Talk:Fascism,set auto-archiving
2009-08-22T03:06:12+00:00,309363922,309305136,0,MiszaBot I,Talk:Fascism,Archiving 1 thread(s) (older than 10d) to [[Talk:Fascism/Archive 31]].
2008-02-15T08:25:45+00:00,191606816,190725715,0,24.69.170.138,Talk:Fascism,/* Practical differences between Communism & Fascism */
2009-09-12T12:04:52+00:00,313356050,313355956,0,Vision Thing,Talk:Fascism,/* Genius */ fix heading
2006-11-16T06:10:39+00:00,88155635,87616520,0,Jmabel,Talk:Fascism,"/* Definitions */ add pseudo sig to recent remark, move it to bottom of section, respond"
2007-06-16T01:20:20+00:00,138468969,138189528,0,129.7.101.57,Talk:Fascism,/* FASCISM AND ITS SYNDICALIST ROOTS */
2007-07-27T12:57:25+00:00,147440465,145937439,0,Daniel,Talk:Fascism,"Remove template, mediation closed"
2009-09-03T00:51:37+00:00,311573588,311572233,0,The Four Deuces,Talk:Fascism,/* Position in the political spectrum – Neutrality tag */ Will re-write tomorrow
2006-12-06T13:40:54+00:00,92452894,92391531,0,Cberlet,Talk:Fascism,Please edit with a scalpel not a meat cleaver
2006-07-11T05:11:49+00:00,63175393,63175150,0,Jmabel,Talk:Fascism,"/* Nazism began as a form of National Socialism */ Sorry, I hadn't read down far enough, this got covered, remove my belated remark."
2007-07-30T17:33:47+00:00,148086005,148078725,0,Jacob Haller,Talk:Individualist anarchism,/* synonyms */
2008-09-21T00:44:42+00:00,239897880,239091694,0,Zazaban,Talk:Individualist anarchism,/* Criticisms of Anarcho-Individualism From Other Anarchists */ Error
2008-10-14T20:05:35+00:00,245289407,244883603,0,Skomorokh,Talk:Individualist anarchism,/* Bias */ brief comment on sourcing conventions
2009-08-03T15:50:51+00:00,305834191,305101140,0,JJARichardson,Talk:Individualist anarchism,
2009-11-02T14:13:28+00:00,323472122,323418947,0,The Four Deuces,Talk:Individualist anarchism,/* unbalanced and USA biased article */
2008-01-21T09:19:41+00:00,185833426,178395696,0,Cast,Talk:Individualist anarchism,
2008-07-12T13:04:19+00:00,225203323,209507398,0,Skomorokh,Talk:Individualist anarchism,/* Moving external links */ new section
2007-09-19T21:11:30+00:00,159031911,157815812,0,Operation Spooner,Talk:Individualist anarchism,/* Sources */
2009-06-25T14:43:32+00:00,298567279,297795096,0,Charles Edward,Talk:Individualist anarchism,{{WPLibertarianism|class=b|importance=mid}}
2008-03-13T17:31:10+00:00,198001361,187571671,0,Operation Spooner,Talk:Individualist anarchism,
2006-08-12T03:13:14+00:00,69143783,69143495,0,DTC,Talk:Individualist anarchism,/* Origins sections */
2007-07-18T16:03:06+00:00,145456877,145367638,0,Operation Spooner,Talk:Individualist anarchism,"/* Part of the ""Socialism"" and ""Libertarianism"" series */"
2009-11-02T05:03:08+00:00,323418947,322957554,0,The Four Deuces,Talk:Individualist anarchism,/* unbalanced and USA biased article */
2006-11-16T16:43:10+00:00,88229476,88207514,0,Libertatia,Talk:Individualist anarchism,/* Martin anti-capitalist? */
2009-10-30T17:42:50+00:00,322957554,322681621,0,Eduen,Talk:Individualist anarchism,/* unbalanced and USA biased article */
2007-01-12T19:47:52+00:00,100283462,100283368,0,Anarcho-capitalism,Talk:Individualist anarchism,/* Spam Protection Filter? */
2007-08-18T09:43:12+00:00,152013324,152013139,0,Infinity0,Talk:Individualist anarchism,/* Synonyms (still continued 3) */
2007-04-21T18:34:29+00:00,124655140,124218840,0,Alex1011,Talk:Labor theory of value,importance of labor
2009-02-23T23:17:32+00:00,272833236,272462635,0,Radical Mallard,Talk:Individualist anarchism,/* Origins sections */ contra DTC
2010-01-14T00:41:06+00:00,337707412,337707047,0,Zazaban,Talk:Individualist anarchism,/* Orphaned references in Individualist anarchism */
2008-01-26T21:11:45+00:00,187101346,187094427,0,70.157.178.230,Talk:Labor theory of value,/* Wkat Happens Next */
2009-12-14T10:14:49+00:00,331595038,326957642,0,Jack Upland,Talk:Labor theory of value,/* Ridiculous Curves */ new section
2009-09-20T10:06:39+00:00,315071090,315070917,0,Jack Upland,Talk:Labor theory of value,/* Unbalanced */
2009-04-11T05:54:22+00:00,283126043,283125906,0,SineBot,Talk:Labor theory of value,"Signing comment by [[Special:Contributions/164.100.140.43|164.100.140.43]] - ""/* Devils Advocate Questions */"""
2007-10-21T21:39:21+00:00,166138113,163965653,0,Gregbard,Talk:Labor theory of value,
2008-02-22T02:53:22+00:00,193188958,193188895,0,Gary,Talk:Labor theory of value,cleanup
2008-02-16T13:16:36+00:00,191844348,191843202,0,70.157.178.54,Talk:Labor theory of value,/* What Happens Next */
2007-01-26T16:39:58+00:00,103404344,102963314,0,K012957,Talk:Liberalism in the United States,"Parallel to ""American Conservatism"" page"
2007-11-05T14:44:48+00:00,169382852,169377948,0,Rick Norwood,Talk:Liberalism in the United States,/* American Political Primer for Europeans */
2008-05-11T03:17:14+00:00,211588002,206232374,0,66.57.229.78,Talk:Liberalism in the United States,
2007-07-25T06:01:04+00:00,146936013,145904618,0,68.186.60.57,Talk:Liberalism in the United States,"confusing sentence, unsupported"
2009-11-27T05:15:34+00:00,328158899,327240721,0,MiszaBot I,Talk:Liberalism in the United States,Archiving 3 thread(s) (older than 90d) to [[Talk:Liberalism in the United States/Archive 7]].
2008-10-27T14:08:07+00:00,247982013,247835979,0,Rick Norwood,Talk:Liberalism in the United States,/* Some positions associated with liberalism in the United States */
2006-09-18T02:30:44+00:00,76339855,76329084,0,Minidoxigirli,Talk:Modern liberalism in the United States,/* Philosophy Redo */
2009-06-20T15:05:58+00:00,297555891,297555809,0,JForget,Talk:Monopoly,[[WP:RBK|Reverted]] edits by [[Special:Contributions/98.169.28.99|98.169.28.99]] ([[User talk:98.169.28.99|talk]]) to last version by H005
2007-12-14T16:32:40+00:00,177901111,149175849,0,Gregbard,Talk:Modern liberalism in the United States,phil
2006-07-25T19:04:05+00:00,65808674,65808485,0,Akshayaj,Talk:Monopoly,/* ''Monopolistic competition'' */
2009-05-03T12:24:33+00:00,287629402,287470687,0,H005,Talk:Monopoly,moved [[Talk:Monopoly (economics)]] to [[Talk:Monopoly]] over redirect: Reverting previous move as it was for no visible reason
2006-12-21T03:17:35+00:00,95655622,93968024,0,Beyond the classroom,Talk:Monopoly,
2007-03-13T17:36:38+00:00,114842268,114839407,0,Kukyona,Talk:Objectivism,"removed 'regarding', I must remember to re-read my posts before hitting save"
2009-08-09T01:29:20+00:00,306893497,306883027,0,RL0919,Talk:Objectivism,/* Objectivist Epistemology: Attributing Authorship */ about the Criticism section
2008-10-06T20:24:54+00:00,243505338,243470112,0,Karbinski,Talk:Objectivism,Request to Move closed
2009-03-27T15:38:48+00:00,280024206,280024000,0,SineBot,Talk:Objectivism,"Signing comment by [[Special:Contributions/169.203.74.111|169.203.74.111]] - ""/* Flow Control */ new section"""
2007-07-25T12:49:20+00:00,146981872,146981794,0,WLU,Talk:Objectivism,/* APA */ that's why there's a preview feature
2006-07-31T12:54:56+00:00,66847132,65910402,0,Agent Cooper,Talk:Objectivism,/* Some small problems */
2008-07-28T17:21:30+00:00,228427135,227542078,0,Skomorokh,Talk:Objectivism,/* Input requested re: property is theft! */ new section
2006-07-04T21:57:13+00:00,62086708,61852154,0,Centrx,Talk:Objectivism,Properly place new section from top to bottom
2010-01-11T12:05:11+00:00,337177790,337177751,0,Graham87,Talk:Objectivism,moved [[Objectivist philosophy/Talk]] to [[Talk:Objectivism (Ayn Rand)]] over redirect: revert
2006-11-21T21:13:30+00:00,89305161,89115917,0,DAGwyn,Talk:Objectivism,/* Hilarity */
2008-06-19T10:03:08+00:00,220331064,220258885,0,Skomorokh,Talk:Objectivism,wrapping banners
2006-07-06T02:46:24+00:00,62299622,62288374,0,LGagnon,Talk:Objectivism,/* Expert needed? (as said on front page) */
2008-01-25T21:02:55+00:00,186887430,186725455,0,DAGwyn,Talk:Objectivism,/* Article review */
2007-09-17T15:08:11+00:00,158505895,158491914,0,DAGwyn,Talk:Objectivism,"/* 09/14/07 Removing sentence that Ayn Rand did not publish in ""conventional ..."" */"
2009-10-17T06:14:39+00:00,320357016,314975071,0,MiszaBot I,Talk:Objectivism,Archiving 3 thread(s) (older than 90d) to [[Talk:Objectivism (Ayn Rand)/Archive 1]].
2006-10-19T00:10:42+00:00,82320911,82320596,0,209.174.60.3,Talk:Objectivism,
2009-01-08T07:44:33+00:00,262709143,262708707,0,Snowded,Talk:Objectivism,/* Is It Possible */
2008-04-05T20:56:37+00:00,203595468,203417679,0,Emesee,Talk:Objectivism,/* link to a source - */ new section
2006-11-24T20:20:05+00:00,89883622,89787920,0,DAGwyn,Talk:Objectivism,/* Acceptance by mainstream philosophy */
2007-10-27T22:28:53+00:00,167513236,167417678,0,DAGwyn,Talk:Objectivism,/* Is there such a thing as laissez-faire patents? */
2007-02-03T03:57:00+00:00,105259664,105207126,0,DAGwyn,Talk:Objectivism,/* Weasel? */
2009-03-01T20:43:52+00:00,274233035,272670979,0,Gregbard,Talk:Objectivism,social and political phil/nested
2006-08-25T00:55:06+00:00,71714722,70015973,0,Agent Cooper,Talk:Objectivism,/* Weasel/peacock words */
2009-01-27T17:20:40+00:00,266776814,266763905,0,Snowded,Talk:Objectivism,/* Canvassing alert */
2007-06-03T22:37:17+00:00,135652365,135391066,0,DAGwyn,Talk:Objectivism,/* closely related to [[Neoconservatism]]? */
2008-09-03T01:58:04+00:00,235944206,228427135,0,98.228.71.49,Talk:Objectivism,/* Irony */
2008-11-12T00:00:14+00:00,251215413,251052279,0,Gyrae,Talk:Objectivism,"/* Rand chose ""Objectivism"" */"
2008-09-18T14:35:00+00:00,239289993,239254954,0,Buridan,Talk:Objectivism,/* Rights */
2008-11-03T11:36:49+00:00,249383742,249380683,0,Rursus,Talk:Objectivism,/* I like this article */
2010-01-16T22:15:16+00:00,338252629,338252440,0,SineBot,Talk:Objectivism,"Dating comment by [[User:Linux Gang *|Linux Gang *]] - ""/* Criticism Section */"""
2008-07-08T22:37:44+00:00,224456629,224456507,0,Karbinski,Talk:Objectivism,/* Meta Politics */ edit
2008-12-26T19:45:10+00:00,260212526,260210733,0,Snowded,Talk:Objectivism,/* POV Crusade */
2008-01-10T01:24:09+00:00,183303806,183162180,0,DAGwyn,Talk:Objectivism,/* Article review */
2007-02-12T09:20:18+00:00,107525048,107238778,0,DAGwyn,Talk:Objectivism,/* Other questions */
2008-06-10T09:09:51+00:00,218363813,211291192,0,SargJohnLennon,Talk:Objectivism,
2007-06-02T20:37:28+00:00,135391066,135380794,0,Endlessmike 888,Talk:Objectivism,/* closely related to [[Neoconservatism]]? */
2006-09-06T23:22:25+00:00,74227964,74011069,0,Ethan a dawe,Talk:Objectivism,/* NPOV */
2006-11-20T23:42:50+00:00,89115917,88991992,0,ObjectiveBrit,Talk:Objectivism,reverting blanking
2009-05-21T23:26:34+00:00,291502461,291177822,0,Karbinski,Talk:Objectivism,/* Restoring James Valliant and The Passion of Ayn Rand's Critics */ wrapping in collapse template
2007-03-31T17:56:19+00:00,119305474,119274039,0,Endlessmike 888,Talk:Objectivism,/* External Links removed */
2008-02-14T21:52:14+00:00,191508463,191508420,0,Mandarni~enwiki,Talk:Objectivism,/* Rand choose Objectivism bla bla bla */
2007-08-20T13:52:28+00:00,152463704,152463607,0,Karbinski,Talk:Objectivism,/* RFC Conclusion */
2007-07-15T00:59:18+00:00,144704273,144700424,0,Endlessmike 888,Talk:Objectivism,/* History of cultism */
2006-10-09T02:03:55+00:00,80334871,80305260,0,LGagnon,Talk:Objectivism,/* Acceptance by mainstream philosophy */
2009-09-19T20:46:36+00:00,314975071,309340814,0,Metaphysicalnaturalist,Talk:Objectivism,/* Criticism Section */
2009-08-21T23:51:57+00:00,309340814,309267362,0,RLCampbell,Talk:Objectivism,/* Objectivist Epistemology: Attributing Authorship */
2006-08-16T13:59:39+00:00,70015973,69829958,0,Centrx,Talk:Objectivism,fix archive box
2008-07-18T16:38:01+00:00,226473218,226253650,0,KD Tries Again,Talk:Objectivism,/* Worthy of academic study? */
2009-08-13T08:09:05+00:00,307707591,307692794,0,Peterdjones,Talk:Objectivism,/* Objectivist Epistemology: Attributing Authorship */ Peikoff sucks
2009-06-01T00:00:34+00:00,293614384,293610134,0,RL0919,Talk:Objectivism,/* Sourcing: mostly not independent? */ thoughts
2007-06-21T15:08:33+00:00,139680761,139432837,0,DAGwyn,Talk:Objectivism,/* History of cultism */
2009-06-15T03:57:15+00:00,296480119,296480045,0,145.116.9.201,Talk:Objectivism,/* External Reality and Noumena */
2007-01-19T02:01:40+00:00,101698770,101653687,0,DAGwyn,Talk:Objectivism,/* Raimondo Quote */
2007-12-04T19:46:03+00:00,175766024,175606108,0,DAGwyn,Talk:Objectivism,"/* Failed ""good article"" nomination */"
2007-09-05T13:33:51+00:00,155834996,155834856,0,Karbinski,Talk:Objectivism,/* Request for Comment:  Influence of Objectivism in other areas */
2008-07-10T23:43:01+00:00,224913108,224657774,0,DAGwyn,Talk:Objectivism,/* Meta Politics */
2008-09-23T17:25:20+00:00,240482456,240474261,0,Skomorokh,Talk:Objectivism,/* Discussion */ some suggestions
2006-09-05T20:24:55+00:00,74011069,73964015,0,Carrionluggage,Talk:Objectivism,/* What did Ayn Rand want? */ improved English/spelling
2007-06-16T13:00:45+00:00,138548432,138531134,0,ThAtSo,Talk:Objectivism,
2009-06-05T15:24:48+00:00,294589509,294586964,0,RL0919,Talk:Objectivism,/* Sourcing: mostly not independent? */ secondary sources are available
2009-04-06T23:26:48+00:00,282222520,282222414,0,Karbinski,Talk:Objectivism,/* Individualism Sidebar is against NPOV */ Propose new cross-article template
2009-02-13T20:20:32+00:00,270514545,270514395,0,Rokfaith,Talk:Objectivism,delete my double posting
2009-05-20T13:56:42+00:00,291177822,291176317,0,Karbinski,Talk:Objectivism,/* Restoring James Valliant and The Passion of Ayn Rand's Critics */
2008-05-09T17:03:38+00:00,211291192,211148081,0,Karbinski,Talk:Objectivism,/* Morality */
2007-05-30T02:05:47+00:00,134469019,133799623,0,AdamReed,Talk:Objectivism,Vanity quotes.
2008-12-15T02:40:28+00:00,258037990,258037543,0,Skomorokh,Talk:Objectivism,/* Racist ideology */ !!!
2006-07-07T20:26:31+00:00,62615692,62475306,0,Charles Gaudette,Talk:Objectivism,Where to start
2007-08-07T14:48:10+00:00,149775900,149775788,0,ThAtSo,Talk:Objectivism,/* Template */
2006-07-18T21:46:59+00:00,64545045,64544258,0,MrVoluntarist,Talk:Objectivism,/* Weasel/peacock words */ reformat to clarify who said what
2009-07-23T21:06:07+00:00,303811823,302844405,0,Karbinski,Talk:Objectivism,
2009-02-15T00:23:45+00:00,270771860,270514545,0,Kjaer,Talk:Objectivism,/* Metaphysics */
2009-04-19T17:44:27+00:00,284841271,282222520,0,Karbinski,Talk:Objectivism,/* Metaphysics */ comment
2009-04-24T12:33:34+00:00,285842983,285842908,0,Karbinski,Talk:Objectivism,/* Metaphysics */
2006-09-30T08:52:20+00:00,78657257,78657137,0,Karbinski,Talk:Objectivism,/* Libertarianism to be moved */
2008-11-07T22:08:25+00:00,250321959,250207784,0,Tohd8BohaithuGh1,Talk:Objectivism,General fixes  using [[Project:AutoWikiBrowser|AWB]]
2008-03-22T01:52:54+00:00,199974579,199607141,0,Idag,Talk:Objectivism,/* History of Philosophy Criticism */
2006-10-06T12:23:46+00:00,79833292,79833224,0,24.220.246.20,Talk:Objectivist movement,
2007-07-25T14:59:28+00:00,147003481,146992969,0,WLU,Talk:Objectivist movement,/* See also */ journals
2008-06-15T02:42:23+00:00,219411730,214807772,0,Skomorokh,Talk:Objectivist movement,assessed as B/top for [[WP:A=A]]
2008-05-01T21:06:14+00:00,209547437,187809790,0,SmackBot,Talk:Objectivist movement,Date the maintenance tags or general  fixes
2009-08-02T23:25:14+00:00,305715712,305714643,0,RLCampbell,Talk:Objectivist movement,/* Peikoff/Kelley split */
2008-01-29T23:54:02+00:00,187809790,187809612,0,72.226.196.158,Talk:Objectivist movement,
2007-04-15T21:35:26+00:00,123078479,123032303,0,SteveWolfer,Talk:Objectivist movement,/* Links section */ reply
2009-05-30T17:31:18+00:00,293346695,293228669,0,RL0919,Talk:Objectivist movement,sub in neutral name for project template
2008-11-16T05:41:38+00:00,252105737,251493655,0,Nikodemos,Talk:Planned economy,
2008-02-06T16:59:49+00:00,189527479,189527298,0,Gary,Talk:Profit/Old history,Templates
2006-06-21T03:38:13+00:00,59746308,59542147,0,LaszloWalrus,Talk:Randism,
2008-02-01T12:27:44+00:00,188366360,187228017,0,213.35.240.205,Talk:Profit/Old history,
2009-12-01T17:01:07+00:00,329062652,265286504,0,Updatehelper,Talk:Randism,Original geocities.com/...  weblink is gone but has been mirrored & archived in october 2009. For any issue contact oocities AT googlemail DOT com using [[Project:AutoWikiBrowser|AWB]]
2009-01-20T14:13:54+00:00,265286504,265286361,0,SineBot,Talk:Randism,"Signing comment by [[Special:Contributions/70.105.228.24|70.105.228.24]] - ""/* Don't delete */ new section"""
2009-07-03T01:44:52+00:00,299979082,299978952,0,SineBot,Talk:Reaganomics,"Signing comment by [[Special:Contributions/72.177.233.171|72.177.233.171]] - ""/* Tax Cuts or Tax Hikes. What it really was? */"""
2007-10-23T02:50:55+00:00,166434068,166433793,0,SineBot,Talk:Reaganomics,"Signing comment by [[User:Boxerdogs|Boxerdogs]] - ""/* Terrible, terrible article */ new section"""
2008-01-13T18:58:55+00:00,184087723,175878538,0,67.49.195.223,Talk:Reaganomics,/* boondocks */
2006-06-27T02:30:35+00:00,60767567,60767531,0,Jossi,Talk:Responses to Objectivism,/* Merge */
2009-02-05T04:01:41+00:00,268623668,268434602,0,MiszaBot I,Talk:Scientology,Archiving 3 thread(s) (older than 30d) to [[Talk:Scientology/Archive 25]].
2007-03-27T21:14:04+00:00,118357134,118344246,0,WGee,Talk:Socialism,/* Too much history/not enough other stuff */
2008-08-04T02:29:27+00:00,229693392,229693358,0,Coffee,Talk:Scientology,Reverted edits by [[Special:Contributions/Naknei|Naknei]] ([[User talk:Naknei|talk]]) to last version by GoodDamon
2010-01-31T11:16:44+00:00,341069965,341068725,0,Ferocious osmosis,Talk:Socialism,/* Albert Einstein */
2009-04-14T12:03:27+00:00,283765473,283725901,0,Zd12,Talk:Socialism,
2009-08-20T16:45:00+00:00,309093210,309080934,0,Simonm223,Talk:Socialism,/* 21st century socialism - Obama */
2006-09-03T02:37:17+00:00,73505625,73399272,0,WGee,Talk:Socialism,"/* Deleting ""See Also"" section */"
2008-01-14T00:28:11+00:00,184155217,182857096,0,Lycurgus,Talk:Socialism,/* Length and Semantics */
2009-12-02T13:10:41+00:00,329238838,326794987,0,Rursus,Talk:Socialism,/* Why the American Spelling */
2008-08-30T08:10:49+00:00,235146693,235004044,0,Hydrostatic,Talk:Socialism,/* Socialism/Communism */
2009-06-12T09:44:13+00:00,295947302,295947177,0,SineBot,Talk:Socialism,"Signing comment by [[Special:Contributions/60.234.222.217|60.234.222.217]] - ""/* Archives */"""
2007-07-27T13:11:33+00:00,147442446,147392975,0,Daniel,Talk:Socialism,"-template, case closed"
2008-09-12T08:35:49+00:00,237894987,235146693,0,RolandR,Talk:Socialism,/* Bizarre edits */ new section
2006-08-01T09:22:31+00:00,67010768,66870167,0,Bobfrombrockley,Talk:Socialism,/* Socialism worldwide article */
2006-06-27T14:45:59+00:00,60844220,60807310,0,Mattisse,Talk:Socialism,/* What working class movement originated the modern socialist movement? */
2008-06-17T17:12:14+00:00,219958954,219674844,0,Jcchat66,Talk:Socialism,/* Corporations are slave plantations */
2009-03-16T13:38:31+00:00,277639753,277322438,0,RolandR,Talk:Socialism,"/* ""Obama's no socialist"" */ new section"
2009-08-08T15:09:26+00:00,306803357,306471081,0,Werdnabot,Talk:Socialism,Automated archival of 1 sections to [[Talk:Socialism/Archive 11]]
2008-07-11T21:50:46+00:00,225101129,225084876,0,Sarcastic Avenger,Talk:Socialism,/* Churchill quote */
2008-08-01T00:23:38+00:00,229131122,228489636,0,Slipoutside,Talk:Socialism,/* red flag-again */
2010-01-23T00:37:08+00:00,339449156,339448976,0,SineBot,Talk:Socialism,"Signing comment by [[Special:Contributions/76.180.61.194|76.180.61.194]] - ""/* Planned economy and centralized government */"""
2007-04-14T17:59:17+00:00,122793031,122564278,0,Christofurio,Talk:Socialism,/* Social Control */
2008-11-14T19:23:13+00:00,251821115,243206033,0,ShepBot,Talk:Truthiness,[[Wikipedia:Template substitution|subst:'ing]] {{[[Template:Unsigned|unsigned]]}}
2007-09-29T14:11:05+00:00,161118451,161037355,0,ISD,Talk:Truthiness,Featured Article promotion
2007-11-10T10:51:44+00:00,170526275,167480055,0,JzG,Talk:Truthiness,/* He said / she said */ new section
2006-12-14T05:59:50+00:00,94230599,93721216,0,A Good Anon,Talk:Truthiness,/* Word of The Year */
2008-07-08T01:35:25+00:00,224262506,224226053,0,NJGW,Talk:Truthiness,"/* Page needs to be moved to ""Popularization of 'truthiness' by Steven Colbert"" */"
2008-02-20T17:33:45+00:00,192835230,192833776,0,Wolfkeeper,Talk:Truthiness,
2009-06-26T13:31:02+00:00,298749172,298747211,0,Hekerui,Talk:Truthiness,add to article history from article log
2007-09-21T07:52:06+00:00,159344010,159340282,0,Reaverdrop,Talk:Truthiness,/* FA nomination? */ reply again re FA nom
2006-09-16T07:53:46+00:00,76014583,76011968,0,Miss Mondegreen,Talk:Truthiness,/* Notes */
2009-02-14T22:19:58+00:00,270748080,265110664,0,G Purevdorj,Talk:Truthiness,
2007-08-07T19:55:36+00:00,149829583,148873273,0,Masem,Talk:Truthiness,GA categorization: correcting oldid per [[WP:UCGA]]
2007-02-21T21:31:06+00:00,109906385,109695609,0,SMcCandlish,Talk:Truthiness,New WikiWorld tag; prioritized tags.
2009-04-13T05:07:10+00:00,283506552,280237918,0,Fiziker,Talk:Truthiness,assessed importance for [[WP:SKEPTIC]]: low
2007-09-26T19:26:51+00:00,160532148,160527568,0,Pseudo-Richard,Talk:United States,/* Are bear attacks really relevant in this broad overview of an article? */ RFCU submitted
2007-07-06T23:18:06+00:00,142995650,142994947,0,BrendelSignature,Talk:United States,/* US air force jets */ reply
2009-03-04T18:54:07+00:00,274980888,274942936,0,SDY,Talk:United States,/* Name */ Not unusual that this article does not use the formal name
2009-12-22T20:42:42+00:00,333353633,333340009,0,David Levy,Talk:United States,/* Requested move */ replied to [[User:Valkyrie Red|Valkyrie Red]]
2008-08-20T03:11:44+00:00,233037573,233035145,0,MiszaBot I,Talk:United States,Archiving 2 thread(s) (older than 5d) to [[Talk:United States/Archive 32]].
2008-04-19T18:47:46+00:00,206736814,206715156,0,Coolcaesar,Talk:United States,/* FAQs */ This is a closed issue
2009-11-07T04:48:25+00:00,324407464,324407188,0,59.92.45.146,Telenet,/* Coverage */
2008-09-23T23:37:12+00:00,240562471,240562372,0,Irb,Telenet,/* Computer Access */
2007-12-15T19:44:04+00:00,178129200,161805688,0,Rich Farmbrough,Template:Request quotation,/* Usage */
2009-06-04T19:47:22+00:00,294436181,269103110,0,Debresser,Template:Request quotation,added dated category
2007-01-01T16:38:16+00:00,97744576,97655668,0,Andypayne,Truthiness,linkification
2009-04-17T04:40:54+00:00,284358195,282707915,0,Hippo43,Truthiness,cl
2008-05-08T05:33:15+00:00,210972914,210971436,0,VolkovBot,United States,robot  Adding: [[bi:United States]]
2007-08-16T17:18:56+00:00,151639328,151637605,0,Benhocking,United States,Reverted 1 edit by [[Special:Contributions/BECASC|BECASC]] identified as [[WP:VAND|vandalism]] to last revision by [[User:DCGeist|DCGeist]]. using [[WP:TWINKLE|TW]]
2009-09-28T08:47:34+00:00,316647205,316480236,0,Credema,United States,"changed ""drives_on=Right"" to ""drives_on=right"" as in other articles"
2008-07-06T13:07:36+00:00,223906442,223856903,0,SieBot,United States,robot  Modifying: [[my:အမေရိကန်ပြည်ထောင်စု]]
2009-01-20T22:11:56+00:00,265366388,265363725,0,DCGeist,United States,/* Contemporary era */ correct link name
2008-11-27T23:00:20+00:00,254503827,254502963,0,Kman543210,United States,"rv recent edits of ""government type"""
2008-02-01T04:15:16+00:00,188314311,188310204,0,DCGeist,United States,"rv for reasons stated--edit summary insensible: no claim made that there is an official national language; once again, source is substandard; once again, fully covered in infobox note & main text"
2007-11-09T03:16:30+00:00,170246546,170227397,0,Evb-wiki,United States,i believe 'following' was correct - making the US #6
2007-05-03T01:16:30+00:00,127839085,127838488,0,Chrose,United States,/* National Anthem */
2007-06-18T17:24:57+00:00,139016718,138973154,0,DCGeist,United States,"restore proper identification of artwork--even if the average reader knows about clicking on images (an asumption we can't rely on), it's still very bad form to not ID & credit original art"
2006-12-24T16:16:44+00:00,96285818,96245968,0,D54b7ba,United States,
2008-01-03T15:10:57+00:00,181867608,181866134,0,DCGeist,United States,"/* Etymology */ add cite, remove tag"
2007-01-22T03:09:29+00:00,102354776,102352366,0,Wise,United States,/* General situation */
2008-06-29T07:38:41+00:00,222423726,222422324,0,DCGeist,United States,/* Modern era */
2007-02-13T03:50:24+00:00,107740961,107740853,0,Luna Santin,United States,Reverted edits by [[Special:Contributions/Marth2k|Marth2k]] ([[User talk:Marth2k|talk]]) to last version by Joshdboz
2006-09-13T05:18:58+00:00,75449074,75441256,0,Preslethe,United States,"rv. see superpower bit later in intro. before changing the superpower statements, please, discuss at talk. this issue is much debated."
2008-07-16T16:26:56+00:00,226048335,226048037,0,DCGeist,United States,"/* Literature, philosophy, and the arts */ li'l ce"
2008-05-21T23:12:08+00:00,214062069,214035569,0,KGBarnett,United States,"/* Culture */ fine, West Africa it is, - but let the link be to the [[African American culture]] article, since the access to the actual source is unavailable to many people"
2008-04-04T18:32:34+00:00,203341178,203298427,0,Iandiver,United States,/* Government and politics */ Judiciary renamed Judicial.
2008-11-19T13:08:51+00:00,252771619,252771423,0,ImperatorExercitus,United States,Reverted edits by [[Special:Contributions/Truecoder777|Truecoder777]] ([[User talk:Truecoder777|talk]]) to last version by Feydey
2007-10-21T02:40:57+00:00,165972382,165971785,0,DCGeist,United States,/* Culture */ style
2009-05-04T23:27:06+00:00,287947407,287944842,0,Ben Lunsford,United States,"[[WP:UNDO|Undid]] revision 287944842 by [[Special:Contributions/Kueldude|Kueldude]] ([[User talk:Kueldude|talk]]) - no such thing as an ""economy building"" that I know of"
2006-09-12T04:11:03+00:00,75224990,75211792,0,Jeff3000,United States,Disambiguate [[Dutch]] to [[Netherlands]] using [[:en:Wikipedia:Tools/Navigation_popups|popups]]
2009-02-07T13:06:58+00:00,269120548,269078013,0,DCGeist,United States,....er...NO
2007-06-19T06:27:06+00:00,139146452,139145685,0,DCGeist,United States,clean up cite format
2007-12-05T04:26:52+00:00,175860715,175857913,0,DCGeist,United States,restore inadvertently cut edit; more specific links
2006-07-05T08:02:32+00:00,62149521,62112791,0,Preschooler.at.heart,United States,/* Economy */
2006-09-04T05:18:43+00:00,73702446,73701729,0,Golbez,United States,Reverted edits by [[Special:Contributions/Aptdwn26|Aptdwn26]] ([[User talk:Aptdwn26|talk]]) to last version by Golbez
2006-11-10T19:42:25+00:00,86994602,86946850,0,Dposse,United States,removed (...). put commas instead
2008-08-12T03:22:33+00:00,231373661,231162404,0,Unixxx,United States,/* Income and human development */ - Spelling
2009-01-28T16:08:50+00:00,266987399,0,0,PublicSquare,User talk:Can I touch it?,Agorism sidebar
2010-01-18T22:18:47+00:00,338633277,338632751,0,Can I touch it?,User talk:Can I touch it?,/* Classical liberalism */
2008-06-04T15:35:03+00:00,217088146,199972172,0,Akadruid,User talk:Dullfig,Notification: Speedy deletion nomination of [[Robert Hessen]]. ([[WP:TW|TW]])
2007-02-05T18:07:54+00:00,105842227,105841955,0,Improper Bostonian,User talk:Improper Bostonian,/* AGAIN? */
2007-01-18T17:48:27+00:00,101596762,101596428,0,Improper Bostonian,User talk:Improper Bostonian,
2006-07-31T23:05:48+00:00,66940778,66912649,0,FrancisTyers,User talk:IndividualistAnarchist,rm soapboxing
2008-02-19T07:03:22+00:00,192503497,174616480,0,Quale,User talk:Intangible,/* Year of death for Wordsworth Donisthorpe */ new section
2009-08-05T03:17:50+00:00,306137986,280712214,0,Steve Dufour,User talk:Intangible,/* Image copyright problem with File:Ahmed Aboutaleb.jpg */
2008-09-19T08:34:33+00:00,239503494,192503497,0,FairuseBot,User talk:Intangible,Image [[:Image:Logogrece n.jpg]] is not compliant with [[WP:NFCC|the non-free content rules]]
2006-12-19T01:29:42+00:00,95217166,91595184,0,Xiner,User talk:Intangible,Content removal
2009-01-04T06:24:20+00:00,261843017,239503494,0,OrphanBot,User talk:Intangible,You've uploaded an image with unknown copyright
2010-01-08T21:19:19+00:00,336671505,306137986,0,DASHBot,User talk:Intangible,Automated Message: Unreferenced BLPs [[User:DASHBot/unrefs|error?]]
2008-02-21T09:43:05+00:00,193003063,192650782,0,Jack Upland,User talk:Jack Upland,/* Your KAL 007 comments */
2008-07-20T01:44:17+00:00,226729767,207053513,0,LamontCranston,User talk:Jack Upland,/* Your KAL 007 comments */
2006-09-07T01:56:41+00:00,74251351,67775420,0,Grumpyyoungman01,User talk:Jack Upland,[[Hillary Bray]]
2008-04-21T04:39:08+00:00,207053513,207053416,0,Loremaster,User talk:Jack Upland,/* Synarchism */
2010-01-02T19:36:04+00:00,335501980,329762304,0,DASHBot,User talk:Jack Upland,Automated Message: Unreferenced BLPs [[User:DASHBot/unrefs|error?]]
2009-05-10T20:14:16+00:00,289122142,287635557,0,Arda Xi,User talk:Jarkeld,/* Vandalism */ new section
2007-06-20T06:55:27+00:00,139378784,67050229,0,Viridae,User talk:RJII,/* Blocked */ requested
2006-08-01T15:09:01+00:00,67050229,61530129,0,Tony Sidaway,User talk:RJII,"02:41, 26 June 2006 UTC"
2006-07-01T11:49:50+00:00,61530129,60612491,0,Tony Sidaway,User talk:RJII,/* [[Wikipedia:Requests for arbitration/Infinity0]] */  Case closed
2006-06-17T06:50:13+00:00,59072982,59033026,0,Crazynas,User talk:RJII,Objectivist Wiki
2006-06-18T20:54:24+00:00,59327734,59072982,0,William M. Connolley,User talk:RJII,Cunning
2009-11-24T22:31:32+00:00,327750169,327664298,0,Mooretwin,User talk:Snowded,/* Sinn Féin */
2009-08-31T06:23:26+00:00,311031325,309057600,0,SoxBot,User talk:Snowded,Delivering [[WP:POST|Wikipedia Signpost]] ([[User:|BOT]])
2010-01-02T18:04:44+00:00,335487630,335483123,0,GoodDay,User talk:Snowded,/* Your Comment */
2007-03-30T20:30:05+00:00,119119640,119047251,0,Snowded,User talk:Snowded,/* [[Wales]] */
2009-11-28T23:10:46+00:00,328469393,328468679,0,Off2riorob,User talk:Snowded,/* IRR */ add
2009-07-02T17:55:46+00:00,299926155,299912771,0,Snowded,User talk:Snowded,/* Cornish people */
2010-01-05T18:23:22+00:00,336039077,336017676,0,LoveMonkey,User talk:Snowded,/* Other articles of interest */
2009-07-04T15:21:45+00:00,300243306,300242646,0,Snowded,User talk:Snowded,/* Article on Modern Celts */ remove excessive header and respond
2009-12-20T21:07:44+00:00,332914831,332742055,0,Snowded,User talk:Snowded,/* Your RFA */
2007-01-14T08:08:44+00:00,100621282,0,0,OrphanBot,User talk:Snowded,You've uploaded an unsourced image
2009-10-21T17:47:06+00:00,321230765,321071891,0,Tmol42,User talk:Yorkshirian,/* Leonard of Blakemore */ new section
2007-02-02T06:00:02+00:00,105030837,101600188,0,172,User:Improper Bostonian,
2007-10-12T15:55:53+00:00,164067444,136398960,0,Nyttend,Utopia (anarchist community),"Redirected to a more proper title: this is the same place as Utopia, Ohio"
2009-05-06T15:07:04+00:00,288279439,287244268,0,Derek.cashman,Walmart,/* Employee and labor relations */ mv sentence
2009-01-16T12:43:28+00:00,264452663,264200594,0,Bun39,Walmart,
2006-07-16T18:54:32+00:00,64153014,64152628,0,65.100.76.50,Walmart,/* External links */ being consistent--individual pro and anti-WM articles are too numerous to link. I believe all other links consolidate numerous articles.
2006-08-08T05:09:39+00:00,68341736,68341728,0,Tawkerbot2,Walmart,BOT - rv [[Special:Contributions/Aandr|Aandr]] ([[User talk:Aandr|talk]]) to last version by Derek.cashman
2008-08-17T20:47:09+00:00,232552159,232379468,0,Craigsjones,Walmart,/* Employee and labor relations */
2006-11-21T02:53:12+00:00,89149737,89149085,0,Jvandyke,Walmart,/* Wal-Mart International */ sale of Germany stores to [[METRO AG]] is complete
2007-03-08T13:52:45+00:00,113569875,113556668,0,Kigali1,Walmart,
2008-09-11T04:30:37+00:00,237647441,237313500,0,Bugo,Walmart,/* History */
2006-12-19T01:01:35+00:00,95212030,95211754,0,68.78.215.156,Walmart,/* Wal-Mart Discount Stores */
2007-12-04T01:44:44+00:00,175622362,175580635,0,Fireplace,Walmart,/* Diversity */ reinsert HRC's call for consumers to shop elsewhere -- NPOV doesn't conflict with this.
2009-07-29T12:00:51+00:00,304864935,304861980,0,Tóraí,Wikipedia talk:Administrators' noticeboard,/* User:Domer48 - WP:OWN/WP:CIVIL */ ?
2006-12-01T01:43:42+00:00,91286685,91285504,0,Stephen Bain,Wikipedia talk:Administrators' noticeboard,"this doesn't belong on the talk page, and in any event has been dealt with already"
2007-02-02T21:19:32+00:00,105183676,105128714,0,HisSpaceResearch,Wikipedia talk:Ignore all rules,/* Risk of exploitation */
2008-04-11T23:49:47+00:00,205030359,205018329,0,HighInBC,Wikipedia talk:Ignore all rules,/* Workshop page */
2008-07-12T04:11:08+00:00,225151599,225151281,0,Slakr,Wikipedia talk:Ignore all rules,moved [[Talk:Dumbest policy ever]] to [[Wikipedia talk:Ignore all rules]] over redirect: revert
2008-07-16T03:03:33+00:00,225939667,225151599,0,Ashley Y,Wikipedia talk:Ignore all rules,/* Kibitzing requested */
2007-01-26T03:06:52+00:00,103297113,103296892,0,Warofdreams,Wikipedia talk:WikiProject Countering systemic bias,/* Bias in choosing primary topics */ clearer reasoning
2007-08-23T09:45:37+00:00,153120059,152362614,0,Dronkle,Wikipedia talk:WikiProject Countering systemic bias,Help wanted re views of Mother Teresa in India
2009-07-25T05:04:44+00:00,304070715,304069548,0,Danger,Wikipedia talk:WikiProject Countering systemic bias,/* bias due to China's power */ reply
2009-11-16T03:27:52+00:00,326098769,326098642,0,GRuban,Wikipedia talk:WikiProject Countering systemic bias,"/* unreadable letters in article titles */ Tayxas, akchully"
2010-01-16T20:37:21+00:00,338237158,337817530,0,PatGallacher,Wikipedia talk:WikiProject Countering systemic bias,royal conventions
2007-03-12T19:14:11+00:00,114608029,114607532,0,Wandalstouring,Wikipedia talk:WikiProject Countering systemic bias,"/* Systematic biases within articles for and by ""psuedo-religious"" interest groups */ list the stuff"
2009-09-03T22:16:58+00:00,311735116,311675193,0,Danger,Wikipedia talk:WikiProject Countering systemic bias,/* alleged origins of bias */ c
2009-05-30T11:18:13+00:00,293289915,293177256,0,Barnabypage,Wikipedia talk:WikiProject Countering systemic bias,/* Bios */ cm
2007-11-01T12:33:47+00:00,168494586,165029095,0,Victor falk,Wikipedia talk:WikiProject Countering systemic bias,== Sectarian violence/civil war in Iraq==There is a [[Talk:Civil_war_in_Iraq#Arbitrary_section_break|discussion]] over whether English sources carry more weight than foreign language ones in deciding
2008-03-24T17:14:37+00:00,200578018,199548845,0,LadyofShalott,Wikipedia talk:WikiProject Countering systemic bias,/* RFC for Gay */ new section
2006-11-14T00:40:13+00:00,87654800,87646976,0,Geni,Wikipedia talk:WikiProject Countering systemic bias,/* Liberalism */
2009-04-04T02:14:23+00:00,281619877,281588681,0,Student7,Wikipedia talk:WikiProject Countering systemic bias,/* Units */ ptr to answer
2008-05-27T18:00:00+00:00,215319383,215319135,0,Takeofflies,Wikipedia talk:WikiProject Fascism/Archive 4,
2009-06-22T00:28:20+00:00,297821643,297821606,0,FormerIP,Wikipedia talk:WikiProject Fascism/Archive 4,/* Is fascism right-wing? */
2010-01-13T23:53:05+00:00,337699374,337699234,0,Oneiros,Wikipedia talk:WikiProject Fascism/Archive 4,move todo to top
2009-08-27T03:18:31+00:00,310295884,304373238,0,Work permit,Wikipedia talk:WikiProject Fascism/Archive 4,/* New articles */ new section
2007-02-26T13:54:49+00:00,111073613,111073541,0,Proabivouac,Wikipedia:Administrators' noticeboard/Edit warring,/* [[User:ALM scientist]] reported by [[User:Proabivouac]] (Result:) */
2007-02-19T11:17:59+00:00,109281531,109281003,0,Yandman,Wikipedia:Administrators' noticeboard/Edit warring,24h
2008-03-24T06:35:44+00:00,200481371,200407326,0,MiszaBot II,Wikipedia:Administrators' noticeboard/Edit warring,Archiving 5 thread(s) (older than 72h) to [[Wikipedia:Administrators' noticeboard/3RRArchive69]].
2009-06-04T09:49:32+00:00,294349861,294349709,0,30flavors,Wikipedia:Administrators' noticeboard/Edit warring,/* User:98.183.80.244 reported by 30flavors (Result:malformed ) */
2009-10-02T03:25:05+00:00,317409074,317406509,0,Law Lord,Wikipedia:Administrators' noticeboard/Edit warring,/* User:Arthur Rubin reported by User:Law Lord (Result: ) */ Reply to [[User:Arthur Rubin|Arthur Rubin]]
2009-11-10T21:23:16+00:00,325120306,325115157,0,Phoenix79,Wikipedia:Administrators' noticeboard/Edit warring,/* User:Phoenix79 reported by User:Snottywong (Result: protected) */ re
2009-08-05T10:00:47+00:00,306181093,306172208,0,Tariqabjotu,Wikipedia:Administrators' noticeboard/Edit warring,/* User:Mr3003nights reported by User:Vision Thing (Result: ) */ + result: three weeks
2006-09-23T11:28:38+00:00,77341516,77338028,0,RiskAficionado,Wikipedia:Administrators' noticeboard/Edit warring,/* [[User:Ibrahimfaisal]] reported by User:[[User:Opiner|Opiner]] (Result:) */
2008-12-04T00:36:47+00:00,255746922,255746762,0,Wrad,Wikipedia:Administrators' noticeboard/Edit warring,/* User:Abog reported by Wrad (talk) (Result: ) */
2007-02-21T18:17:58+00:00,109863034,109861355,0,Goethean,Wikipedia:Administrators' noticeboard/Edit warring,/* [[User:Attasarana]] reported by [[User:goethean]] (Result:) */
2007-05-26T18:16:40+00:00,133682640,133682257,0,Sam Blacketer,Wikipedia:Administrators' noticeboard/Edit warring,/* [[User:Delirium]] reported by [[User:Diluvien]] (Result:no violation) */ Clarity.
2006-10-04T21:19:22+00:00,79525048,79517570,0,Hipal,Wikipedia:Administrators' noticeboard/Edit warring,/* Violations */  User:129.2.37.134 reported by User:Ronz
2006-10-14T03:34:12+00:00,81340361,81339855,0,RenamedUser jaskldjslak904,Wikipedia:Administrators' noticeboard/Edit warring,/* [[User:Fyslee]] reported by User:[[User:Levine2112|Levine2112]] (Result:) */ -12 hours
2008-03-08T08:58:52+00:00,196726970,196722992,0,WalterGR,Wikipedia:Administrators' noticeboard/Edit warring,"/* User:Kilz reported by User:WalterGR (Result: ) */ Adding info about 14:40, 7 March 2008 revert"
2008-09-30T14:51:10+00:00,242013568,242006971,0,AdjustShift,Wikipedia:Administrators' noticeboard/Edit warring,/* 67.79.157.50 reported by AdjustShift  */ new section
2007-07-09T01:12:41+00:00,143401981,143401627,0,Dogru144,Wikipedia:Administrators' noticeboard/Edit warring,/* [[User:208.104.45.20]] --appeal for block against said user for 3RR violation
2008-07-03T08:46:48+00:00,223261741,223261625,0,Stifle,Wikipedia:Administrators' noticeboard/Edit warring,/* User:Arjuna316 reported by User:terrifictriffid (Result: ) */ 8 hours
2010-02-14T02:24:16+00:00,343892966,343890342,0,C.Fred,Wikipedia:Administrators' noticeboard/Edit warring,"/* User:Insideairtran and User:173.2.4.184 reported by User:C.Fred (Result: ) */ comment - on top of everything else, likely a sock behind this"
2008-10-04T05:03:55+00:00,242905383,242905328,0,AnmaFinotera,Wikipedia:Administrators' noticeboard/Edit warring,/* User:ItsLassieTime reported by User:Collectonian (Result: ) */ fix
2009-02-21T21:43:54+00:00,272349832,272346532,0,68.183.246.93,Wikipedia:Administrators' noticeboard/Edit warring,/* User:68.183.246.93 reported by Mark Shaw (talk) (Result: ) */
2007-11-11T17:02:34+00:00,170775429,170760506,0,HLT,Wikipedia:Administrators' noticeboard/Edit warring,
2007-02-27T21:56:30+00:00,111425410,111425101,0,Dpotop,Wikipedia:Administrators' noticeboard/Edit warring,/* [[User:Dahn]] reported by [[User:Dpotop]] (Result:) */
2008-10-28T07:27:17+00:00,248150268,248150240,0,Future Perfect at Sunrise,Wikipedia:Administrators' noticeboard/Edit warring,/* +User:Crossthets */ rem stray heading
2008-05-04T04:05:14+00:00,210038744,210031189,0,B,Wikipedia:Administrators' noticeboard/Edit warring,/* User:67.183.62.211 reported by User:asams10 (Result: ) */
2009-12-05T20:50:23+00:00,329930839,329912573,0,NuclearWarfare,Wikipedia:Administrators' noticeboard/Edit warring,archive to [[Wikipedia:Administrators' noticeboard/3RRArchive117]]
2008-12-06T08:32:46+00:00,256201207,256201061,0,Brattysoul,Wikipedia:Administrators' noticeboard/Edit warring,/* WhatamIdoing reported by Brattysoul */
2008-07-04T05:22:30+00:00,223466792,223465842,0,Taulant23,Wikipedia:Administrators' noticeboard/Edit warring,/* User:Taulant23 reported by User:Gkmx (Result: ) */ WP:POINT violation
2007-07-14T18:39:13+00:00,144642914,144642805,0,Dreadstar,Wikipedia:Administrators' noticeboard/Edit warring,/* [[User:Bennie Noakes]] reported by [[User:Dreadstar]] (Result:) */ format
2007-02-21T10:05:39+00:00,109781768,109781669,0,The Fat Man Who Never Came Back,Wikipedia:Administrators' noticeboard/Personal attacks,"actually, that sounds weird"
2007-12-30T12:02:49+00:00,180969462,109781768,0,DorganBot,Wikipedia:Administrators' noticeboard/Personal attacks,robot  Adding: [[hu:Wikipédia:Személyes támadások bejelentése/Fejléc]]
2009-01-06T17:02:00+00:00,262332813,180969462,0,JohnnyMrNinja,Wikipedia:Administrators' noticeboard/Personal attacks,"moved [[Wikipedia:Personal attack intervention noticeboard]] to [[Wikipedia:Administrators' noticeboard/Personal attacks]]:&#32;historical page, moving to AN with 3RR and others for ease-of-search (and storage)"
2006-06-22T01:48:00+00:00,59921609,59920515,0,Metamagician3000,Wikipedia:Articles for deletion/Responses to Objectivism,"Reword a phrase for clarity - note that outcome was ""no consensus to delete"""
2008-07-28T14:37:04+00:00,228398287,228397888,0,Ukexpat,Wikipedia:Help desk,/* Immersion Composition Society */
2008-05-28T14:41:08+00:00,215507763,215502949,0,Sirex98,Wikipedia:Help desk,/* Resetting the Main Page */ reply
2007-08-27T13:26:30+00:00,153947840,153944777,0,Macrae1992,Wikipedia:Help desk,EDITING
2007-08-30T15:06:42+00:00,154608172,154607935,0,Moonriddengirl,Wikipedia:Help desk,"/* Why is Wikipedia being trimmed? */ a few points, but no specific guideline"
2009-05-06T22:26:28+00:00,288359875,288341535,0,Waiwai933,Wikipedia:Help desk,/* Getting A Reply */
2006-09-23T11:48:42+00:00,77343341,77342922,0,ZimZalaBim,Wikipedia:Help desk,rv nonsense by IP
2009-02-12T18:35:12+00:00,270268611,270268507,0,Ukexpat,Wikipedia:Help desk,/* Deleting a redirect */
2009-02-16T03:33:38+00:00,271036920,271035693,0,Ukexpat,Wikipedia:Help desk,rm whitespace
2008-09-28T20:14:07+00:00,241605155,239833171,0,Teratornis,Wikipedia:Template index/Sources of articles,/* Citations of specific sources */ add [[Template:Wikipedia template messages]]
2009-06-03T09:07:46+00:00,294133066,288231007,0,Kirrages,Wikipedia:Template index/Sources of articles,/* Inline */ added {{what}}
2008-06-21T22:21:25+00:00,220848297,220586228,0,Alan Liefting,Wikipedia:Template index/Sources of articles,added ==Is the article actually worthy of inclusion?== section
2006-08-01T17:04:07+00:00,67069339,66914578,0,Leafman,Wikipedia:Template index/Sources of articles,/* Requesting sources */
2007-07-28T09:35:07+00:00,147634684,141921437,0,Alsandro,Wikipedia:Template index/Sources of articles,+ka
2008-03-18T20:40:44+00:00,199170934,198512149,0,Johnny Au,Wikipedia:WikiProject Countering systemic bias,"/* Latin America*/ this section is about the [[Latin America|region]], rather than a [[Latin|classical language]]"
2008-02-12T11:31:37+00:00,190877931,190745949,0,Kransky,Wikipedia:WikiProject Countering systemic bias,"Darfur still going on; ""Western military violence against non-Western civilians"" POV and does not add extra info"
2007-01-23T06:30:31+00:00,102615776,102615092,0,B.d.mills,Wikipedia:WikiProject Countering systemic bias,/* The origins of bias */
2009-03-16T20:51:29+00:00,277721336,277718087,0,Melodia,Wikipedia:WikiProject Countering systemic bias,Reverted edits by [[Special:Contributions/24.190.143.67|24.190.143.67]] ([[User talk:24.190.143.67|talk]]) to last version by Dwiakigle
2006-12-20T03:25:51+00:00,95446134,95446011,0,203.201.136.11,Wikipedia:WikiProject Countering systemic bias,/* The bias */
2008-05-28T22:19:44+00:00,215601254,215601014,0,Zzuuzz,Wikipedia:WikiProject Countering systemic bias,Reverted edits by [[Special:Contributions/199.91.34.33|199.91.34.33]] ([[User talk:199.91.34.33|talk]]) to last version by Neutrality
2006-06-18T03:17:20+00:00,59215193,59207976,0,Ruakh,Wikipedia:WikiProject Countering systemic bias,rv aggressive and out-of-place insertion
2007-05-21T02:36:15+00:00,132352180,130901514,0,222.155.66.92,Wikipedia:WikiProject Countering systemic bias,"/* The origins of bias */ ""Christian"" counties by historical description, but Christians are minorities in all countries"
2008-12-06T00:49:58+00:00,256148352,256148205,0,Roux,Wikipedia:WikiProject Countering systemic bias,Reverted 1 edit by [[Special:Contributions/96.245.177.68|96.245.177.68]] identified as [[WP:VAND|vandalism]] to last revision by [[User:Johnny Au|Johnny Au]]. ([[WP:TW|TW]])
2008-07-14T16:40:55+00:00,225623790,225611670,0,Hairy Dude,Wikipedia:WikiProject Countering systemic bias,/* The origins of bias */ capitalisation
2006-11-03T14:31:40+00:00,85473791,85473208,0,Lordmetroid,Wikipedia:WikiProject Politics,/* Templates */
2007-05-31T22:21:43+00:00,134935750,134667849,0,PhishRCool,Wikipedia:WikiProject Politics,/* Participants */ added me
2009-01-31T03:04:19+00:00,267538142,260765738,0,Par4d0x,Wikipedia:WikiProject Politics/Fascism,/* Participants */
2008-04-05T12:53:45+00:00,203509564,202995105,0,VolkovBot,Wikipedia:WikiProject Politics/Fascism,robot  Adding: [[de:Wikipedia:WikiProjekt Rechtsextremismus]]
2007-09-08T01:47:53+00:00,156398463,153455077,0,Ceyockey,Wikipedia:WikiProject Politics/Fascism,/* Votes for deletion */ added [[Afrikaner Student Federation]]
2009-10-10T03:27:43+00:00,318997540,318470399,0,SmackBot,William F. Buckley Jr.,Date maintenance tags and general  fixes
2007-07-31T05:11:25+00:00,148206851,147572668,0,Jim.henderson,William F. Buckley Jr.,/* Mayoral candidacy */ Congestion charge
2007-10-14T05:33:47+00:00,164442987,140891894,0,Passargea,A Vindication of Natural Society,link to Rothbard article
2008-08-31T08:35:37+00:00,235343913,195378428,0,Tim!,A Vindication of Natural Society,"Quick-adding category ""Works by Edmund Burke"" (using [[WP:HOTCAT|HotCat]])"
2006-05-12T00:42:18+00:00,52757149,52049608,0,MakeRocketGoNow,A Vindication of Natural Society,Category:1756 works
2007-09-21T19:54:56+00:00,159458982,159456294,0,RedCoat10,Anarchism,/* Origins */
2008-09-05T19:40:55+00:00,236508430,236507649,0,Dawn Bard,Anarchism,Reverted edits by [[Special:Contributions/69.127.228.171|69.127.228.171]] ([[User talk:69.127.228.171|talk]]) to last version by Fieldday-sunday
2007-11-01T05:08:28+00:00,168454858,168411223,0,Father Inire,Anarchism,"/* Anarchist communism */ Changed both ""commune"" links to ""[[Commune (Socialism)]]"""
2009-07-31T16:44:26+00:00,305291538,305250869,0,Malik Shabazz,Anarchism,[[WP:UNDO|Undid]] revision 305250869 by [[Special:Contributions/Dbachmann|Dbachmann]] ([[User talk:Dbachmann|talk]]) rv unexplained deletion
2007-03-23T20:30:00+00:00,117364094,117281062,0,MetsBot,Anarchism,"clean up and typo fixing, Typos fixed: maintainance → maintenance, perjoratively → pejoratively,  using [[Project:AWB|AWB]]"
2006-06-23T07:59:55+00:00,60138409,60138352,0,212.227.119.161,Anarchism,/* Capitalism */
2007-04-29T22:35:59+00:00,126963987,126597561,0,88.73.103.203,Anarchism,
2008-02-27T06:17:44+00:00,194362629,194231567,0,24.149.203.34,Anarchism,"added link to [[anarchy]] itself in second intro paragraph, the word's first appearance"
2008-04-10T14:55:29+00:00,204702928,204581759,0,89.172.22.124,Anarchism,+ [[hr:Anarhizam]]
2008-03-20T00:15:52+00:00,199476721,199388760,0,99.142.24.81,Anarchism,/* Anarchism without adjectives */
2008-01-15T20:17:29+00:00,184554113,184246416,0,Doomsday28,Anarchism,
2007-12-08T07:08:12+00:00,176528419,176528073,0,220.86.141.212,Anarchism,/* General */
2006-06-07T12:15:11+00:00,57344527,57327802,0,Freakofnurture,Anarchism,rm. upward links (template:note) from orphaned items
2009-02-20T20:48:11+00:00,272136331,271606848,0,67.98.176.66,Anarchism,/* Egoism */
2006-05-14T15:17:09+00:00,53157593,53146550,0,Robgraham,Anarchism,/* The first self-labelled anarchist */
2008-04-19T23:49:23+00:00,206787894,206787594,0,Quintote,Anarchism,Reverted edits by [[Special:Contributions/71.102.222.96|71.102.222.96]] ([[User talk:71.102.222.96|talk]]) to last revision (206783213) by  using [[WP:VPRF|VP]]
2010-01-25T22:23:44+00:00,340012792,339986571,0,68.226.208.131,Anarchism,/* Free love */
2010-02-13T04:34:13+00:00,343670905,343658450,0,Thomas.giovanni,Anarchism,/* Further reading */
2009-09-18T13:07:47+00:00,314709909,314652225,0,Hard Sin,Anarchism,
2006-07-23T22:28:39+00:00,65445785,65423294,0,Blahblahblahblahblahblah,Anarchism,I'm guessing this part was removed by accident
2009-05-13T05:52:13+00:00,289623133,289579703,0,OlEnglish,Anarchism,/* See also */ added related article: [[Non-voting]]
2009-08-22T08:33:56+00:00,309393898,309314853,0,Treisijs,Anarchism,Adding [[lv:Anarhisms]]
2007-01-04T17:16:10+00:00,98445521,98406729,0,68.96.28.135,Anarchism,clearly biased wording
2009-11-25T04:33:18+00:00,327804972,327803581,0,4twenty42o,Anarchism,"[[WP:UNDO|Undid]] revision 327803581 by [[Special:Contributions/Eduen|Eduen]] ([[User talk:Eduen|talk]])then diiscuss it and stop edit warring. this is not the way to go about change, as you know"
2007-11-09T18:19:42+00:00,170374334,170333965,0,Babedacus,Anarchism,Gave a better etymology
2009-01-08T09:48:14+00:00,262722051,262721924,0,MeteorMaker,Anarchism,[[WP:UNDO|Undid]] revision 262721924 by [[Special:Contributions/Rodentrance|Rodentrance]] ([[User talk:Rodentrance|talk]])
2006-06-12T00:12:10+00:00,58118693,58118574,0,Exander,Anarchism,/* Other issues */
2007-03-29T15:05:15+00:00,118790150,118789108,0,63.116.66.176,Anarchism,
2009-01-12T19:02:25+00:00,263637131,263496995,0,Aurush kazemini,Anarchism,minor punctuation fixes
2009-10-29T13:49:08+00:00,322730813,321930269,0,Jrtayloriv,Anarchism,confusing having them right next to each other
2006-08-03T15:22:09+00:00,67451515,67414062,0,OceanDepths,Anarchism,This article is unbalanced as a result of pov throughtout. Please either balance it out or leave the tag. Thank you.
2008-03-26T02:04:50+00:00,200964063,200963901,0,Heliogabalus1,Anarchism,/* Anarcha-feminism */
2009-09-09T18:26:59+00:00,312823858,312713815,0,Dasha14,Anarchism,Copy editing
2008-11-17T12:10:12+00:00,252349147,252287190,0,Otolemur crassicaudatus,Anarchism,"rm image of violence which is giving an one-sided picture of anarchist movement, violence is not the only issue in anarchism and not all anarchists support violence"
2007-05-22T09:42:47+00:00,132643912,132543881,0,Victorgrigas,Anarchism,/* See also */
2008-07-20T22:30:59+00:00,226883655,226842834,0,24.231.204.25,Anarchism,
2008-05-28T15:53:29+00:00,215521233,215516182,0,Sluzzelin,Anarchism,[[WP:UNDO|Undid]] revision 215516182 by [[Special:Contributions/216.73.65.91|216.73.65.91]] ([[User talk:216.73.65.91|talk]])
2009-07-22T08:55:37+00:00,303499980,303211482,0,208.104.129.229,Anarchism,
2008-06-21T15:03:54+00:00,220777282,220709049,0,69.47.232.35,Anarchism,
2006-07-17T13:46:35+00:00,64283983,64283937,0,137.99.96.216,Anarchism,/* External links */
2007-06-22T21:49:32+00:00,139992811,139973647,0,192.188.52.98,Anarchism,
2007-01-13T09:33:03+00:00,100413381,100413338,0,Mardavich,Anarchism,Undo revision 100413338 by [[Special:Contributions/213.6.39.40|213.6.39.40]] ([[User talk:213.6.39.40|talk]])
2007-04-24T02:56:49+00:00,125385211,125246282,0,24.245.42.202,Anarchism,/* Cultural phenomena */
2007-04-08T23:06:36+00:00,121288899,121111753,0,67.170.166.25,Anarchism,/* Cultural phenomena */ writing about anarchism is not the same as self-identification
2009-12-06T05:56:41+00:00,330013878,329774507,0,Mboverload,Anarchism,"[[WP:AWB/T|Typo fixing]], typos fixed: american → American using [[Project:AWB]]"
2007-03-18T02:39:55+00:00,115931060,115680073,0,60.242.3.113,Anarchism,
2009-04-26T06:54:02+00:00,286185582,285925850,0,Neutrality,Anarchism,
2008-04-27T22:52:30+00:00,208628338,208628320,0,Aitias,Anarchism,Reverted edits by [[Special:Contributions/72.228.113.246|72.228.113.246]] ([[User talk:72.228.113.246|talk]]) to last version by VoABot II
2008-04-11T21:51:55+00:00,205010306,204980114,0,81.189.29.116,Anarchism,[[la:Anarchismus]]
2010-01-07T09:28:25+00:00,336368934,335989280,0,76.238.247.44,Anarchism,/* Social movement */ changed specially to especially
2007-11-14T04:00:13+00:00,171361714,171361509,0,Master of Puppets,Anarchism,"remove; try to avoid killing templates, please. :P"
2009-09-13T11:29:12+00:00,313552211,312823858,0,194.165.98.184,Anarchism,
2006-11-04T04:00:20+00:00,85606104,85593293,0,MetsBot,Anarchism,"[[WP:AWB/T|Typo fixing]] Typos: accessable → accessible,  using [[Project:AWB|AWB]]"
2008-08-18T03:57:08+00:00,232615098,232615049,0,200.25.153.75,Anarchism,/* External links */
2009-11-08T22:01:57+00:00,324721210,324699798,0,4twenty42o,Anarchism,[[WP:UNDO|Undid]] revision 324693963 by [[Special:Contributions/69.77.250.210|69.77.250.210]] ([[User talk:69.77.250.210|talk]])
2007-10-10T10:06:06+00:00,163534434,163529596,0,Brisvegas,Anarchism,[[WP:UNDO|Undid]] revision 163529596 by [[Special:Contributions/Max rspct|Max rspct]] ([[User talk:Max rspct|talk]])
2007-07-11T20:15:40+00:00,144035891,142019111,0,Cocytus,Anarchism and anarcho-capitalism,/* Dispute over whether anarcho-capitalism is a legitimate form of anarchism */ typo
2009-04-29T07:56:37+00:00,286812265,286812164,0,ThompsonFest,Anarchism and anarcho-capitalism,/* Capitalist structures */
2007-08-05T22:25:20+00:00,149423937,147933363,0,Jamie7687,Anarchism and anarcho-capitalism,"/* Markets */ ""has lead"" changed to ""has led"""
2009-11-29T08:36:47+00:00,328550083,328549878,0,Tb,Anarchism and anarcho-capitalism,"/* Dispute over legitimatacy */ etymology does not determine meaning, but this section is quite comprehensibel just referring to the etymology"
2008-05-18T17:28:50+00:00,213280944,208999646,0,195.137.21.163,Anarchism and anarcho-capitalism,/* Dispute over whether anarcho-capitalism is a legitimate form of anarchism */
2008-02-07T22:54:00+00:00,189831447,187502214,0,Zuzzerack,Anarchism and anarcho-capitalism,"Spelling Error in ""defence"" changed c to s"
2007-09-12T20:58:51+00:00,157462728,155312741,0,207.180.148.47,Anarchism and anarcho-capitalism,/* Similar philosophies */ spellin'
2010-01-26T18:52:32+00:00,340179949,334569525,0,Minimac,Anarchism and anarcho-capitalism,/* Economics and individualist anarchism */ Cited quote
2008-03-07T22:05:09+00:00,196625516,196625481,0,Adambro,Anarchism and anarcho-capitalism,Reverted edits by [[Special:Contributions/74.170.41.165|74.170.41.165]] ([[User talk:74.170.41.165|talk]]) to last version by Skomorokh
2007-08-02T19:36:24+00:00,148781338,148666190,0,Michael Devore,Anarchism in the United States,"rv misspelled 'catagory', nonexistent cat anyway"
2006-12-22T05:27:30+00:00,95873019,95820124,0,Your honor,Anarchism in the United States,reverting. don't falsify sources MaxRspct
2007-01-08T06:14:26+00:00,99269441,99269079,0,Gaily Ezer,Anarchism in the United States,/* Murray Rothbard */ not really a part of anarchism and minor changes
2006-10-24T19:02:17+00:00,83477011,82885805,0,Zoicon5,Anarchism in the United States,/* Josiah Warren */
2006-11-24T04:42:51+00:00,89771398,87897694,0,68.41.55.97,Anarchism in the United States,"/* Indiginist Anarchism */ - capitalized ""Minneapolis"""
2009-09-14T08:44:08+00:00,313792303,310722869,0,121.72.194.219,Anarchism in the United States,/* Contemporary anarchists */  Added Jello Biafra
2008-04-13T21:28:55+00:00,205413938,205413386,0,190.154.117.83,Anarchism in the United States,/* Josiah Warren */
2009-12-20T05:41:21+00:00,332806803,331875766,0,NeilN,Anarchism in the United States,Disambiguate [[Mutualism]] to [[Mutualism (economic theory)]] using [[:en:Wikipedia:Tools/Navigation_popups|popups]]
2007-04-01T01:07:32+00:00,119385810,119385677,0,Dumpster,Anarchism in the United States,/* Contemporary anarchists */
2007-03-11T04:45:48+00:00,114232025,113151470,0,Galaxiaad,Anarchism in the United States,"""John Hopkins"" --> ""Johns Hopkins"", etc., Typos fixed: enviromental → environmental,  using [[Project:AWB|AWB]]"
2007-02-19T18:35:44+00:00,109351002,104535560,0,Tizio,Anarchism in the United States,+{{protected}} template
2009-12-25T07:26:16+00:00,333933216,333933131,0,24.91.179.9,Anarchism in the United States,/* Contemporary anarchists */
2007-01-14T00:31:29+00:00,100553196,100528380,0,Bustedgear,Anarchism in the United States,"Removed link to Robert Anton Wilson from Contemporary anarchists""list and added it to list of Recently deceased."
2006-12-04T15:39:37+00:00,92009964,91528932,0,204.184.214.1,Anarchism in the United States,/* Indiginist Anarchism */
2009-10-28T20:23:11+00:00,322599914,319970230,0,24.46.115.245,Anarchism in the United States,/* Contemporary anarchists */
2006-12-02T03:59:46+00:00,91528932,91503550,0,Hmains,Anarchism in the United States,"change link, Replaced: [[Red Scare]] → [[Second Red Scare|Red Scare]]  using [[Project:AWB|AWB]]"
2006-05-23T11:38:40+00:00,54690751,54140153,0,Ligulem,Anarchism in the United States,Using [[Cascading Style Sheets|CSS]] class references-small from [[MediaWiki:Common.css]]
2008-06-10T08:29:38+00:00,218359449,215304908,0,66.87.80.195,Anarchism in the United States,/* Indigenist anarchism */
2009-01-29T04:03:56+00:00,267123840,267122564,0,Alansohn,Anarchism in the United States,Reverted edits by [[Special:Contributions/190.10.175.240|190.10.175.240]] to last version by Philip Trueman ([[WP:HG|HG]])
2008-09-17T08:49:15+00:00,238984494,238935884,0,Nescio*,Anarchism in the United States,/* Benjamin Tucker */
2007-07-27T16:20:15+00:00,147473421,147438541,0,Theoldanarchist,Anarchism in the United States,[[WP:UNDO|Undid]] revision 147438541 by [[Special:Contributions/75.67.141.150|75.67.141.150]] ([[User talk:75.67.141.150|talk]])
2007-09-10T05:20:37+00:00,156863984,156010464,0,68.53.115.177,Anarchism in the United States,I removed Jello Biafra as he has been intimately involved with the Green Party and so far as I know has never identified himself as an anarchist.
2009-04-02T20:20:40+00:00,281358313,278869397,0,71.98.212.132,Anarchism in the United States,/* Contemporary anarchists */
2007-08-20T22:15:31+00:00,152562502,151809728,0,76.176.223.122,Anarchism in the United States,/* Indigenist anarchism */ Changed 'build' to built to correct grammar in second paragraph.
2006-06-19T02:22:42+00:00,59371556,59187113,0,Dryman,Anarchism in the United States,/* Voltairine de Cleyre */
2008-04-30T16:47:39+00:00,209259664,199209235,0,PipepBot,Anarchism without adjectives,robot  Adding: [[pl:Anarchizm bezprzymiotnikowy]]
2007-02-21T17:51:11+00:00,109857167,109856944,0,Kaihsu,Anarchism without adjectives,
2006-11-14T09:01:30+00:00,87725791,86900221,0,Guanaco,Anarchism without adjectives,"""adjectiveless anarchism"" is self-contradictory"
2007-06-21T17:12:50+00:00,139705528,132479482,0,88.100.255.234,Anarchism without adjectives,"/* Prominent ""anarchists without adjectives"" */ fixed link to [[Fernando Tarrida del Mármol]]"
2008-07-20T01:18:22+00:00,226726544,226547155,0,Apollonius 1236,Anarchist communism,
2009-11-24T13:38:10+00:00,327663233,327663056,0,Waterfalling,Anarchism without adjectives,"This information provides historical context relevant to the article, the solution to the ""present day"" relevance is to move the information, not delete it."
2006-05-21T22:11:53+00:00,54421103,53806728,0,Shibo77,Anarchist communism,"It's listed in both templates(anarchism/communism) and thus both should appear on the page, otherwise, remove Anarchist communism from the templates themselves"
2007-07-27T22:46:32+00:00,147552033,146218535,0,Ludo716,Anarchist communism,/* Theory */
2008-07-08T14:49:57+00:00,224361680,223960746,0,Koroesu,Anarchist communism,typo
2006-08-20T11:31:44+00:00,70748071,70748025,0,194.251.240.117,Anarchist communism,/* Adepts */
2009-09-30T02:40:48+00:00,317012932,316904039,0,174.124.188.188,Anarchist communism,
2006-07-17T04:30:45+00:00,64231895,64193719,0,68.191.9.39,Anarchist communism,/* Books */
2007-05-27T02:21:47+00:00,133769409,132419612,0,Serpent's Choice,Anarchist communism,Converting {{redirect5}} to {{redirect}} per TFD determination.
2009-10-09T20:32:37+00:00,318934796,317012932,0,Kitty555,Anarchist communism,
2008-11-12T02:01:27+00:00,251240281,250512968,0,76.120.66.58,Anarcho-capitalism,
2006-06-19T04:35:33+00:00,59386954,59386569,0,WickedWanda,Anarcho-capitalism,/* Moral questions */ strong or weak propertarian
2007-03-10T14:48:20+00:00,114066785,113735278,0,Harryboyles,Anarcho-capitalism,clean up  using [[Project:AWB|AWB]]
2009-07-08T18:34:07+00:00,301037202,300838084,0,71.241.218.107,Anarcho-capitalism,rv unexplained rv
2009-03-13T03:32:49+00:00,276901371,276901095,0,Your honor,Anarcho-capitalism,/* Law and economics */
2006-11-24T01:49:22+00:00,89749687,89745068,0,Rydra Wong,Anarcho-capitalism,rv vandalism to previous good edit
2009-04-08T21:41:54+00:00,282637428,282018511,0,147.134.151.243,Anarcho-capitalism,/* External links */
2009-09-04T17:44:37+00:00,311868581,311196139,0,24.62.90.28,Anarcho-capitalism,
2008-03-06T04:55:36+00:00,196220198,195117930,0,160.39.195.78,Anarcho-capitalism,/* Anarcho-capitalism today */
2010-01-13T06:48:22+00:00,337550342,337546019,0,Defender of torch,Anarcho-capitalism,[[WP:UNDO|Undid]] revision 337539552 by [[Special:Contributions/75.46.66.109|75.46.66.109]] ([[User talk:75.46.66.109|talk]]) rmv incident
2006-12-09T06:27:45+00:00,93103161,93012647,0,4.225.17.30,Anarcho-capitalism,/* Related subjects */
2007-08-17T13:17:24+00:00,151817461,151817343,0,Mike Rosoft,Anarcho-capitalism,Reverted edits by [[Special:Contributions/Mike Rosoft|Mike Rosoft]] ([[User talk:Mike Rosoft|talk]]) to last version by 70.88.11.142
2006-11-18T07:24:01+00:00,88584370,88495681,0,Ghewgill,Anarcho-capitalism,duplicated word
2006-05-12T17:04:56+00:00,52860492,52790774,0,Ligulem,Anarcho-capitalism,Using [[Cascading Style Sheets|CSS]] class references-small from [[MediaWiki:Common.css]]
2007-01-21T06:43:05+00:00,102168342,101906267,0,Nell Sinatra vulgar,Anarcho-capitalism,
2010-01-07T05:10:08+00:00,336345012,336255382,0,24.98.199.153,Anarcho-capitalism,/* Austrian School */
2009-12-03T23:12:02+00:00,329558881,327705032,0,Esperfulmo,Anarcho-capitalism,: ''See also [[Free-market anarchism]]''
2009-01-31T14:11:52+00:00,267621721,267620720,0,Mmortal03,Anarcho-capitalism,
2007-04-28T09:29:13+00:00,126593301,126247941,0,Crevaner,Anarcho-capitalism,/* External links */
2007-07-07T18:36:04+00:00,143138016,142994964,0,CBM,Anarcho-capitalism,Links to categories don't belong in see also sections.
2009-06-22T14:28:05+00:00,297919906,297854395,0,24.26.106.172,Anarcho-capitalism,/* Early Pennsylvania */
2007-01-04T16:46:16+00:00,98439700,98393875,0,68.96.28.135,Anarcho-capitalism,/* That anarcho-capitalism is not a legitimate form of anarchism */
2007-08-06T08:21:32+00:00,149502016,149119279,0,124.178.159.203,Anarcho-capitalism,/* Nonfiction */  Added link to the Tannehill's book
2006-05-07T13:37:09+00:00,51978239,51867374,0,Osbus,Anarcho-capitalism,/* Other */
2007-06-12T06:05:29+00:00,137623890,137450128,0,76.0.83.142,Anarcho-capitalism,/* Anarcho-capitalism today */
2006-07-01T07:41:02+00:00,61511787,61047632,0,WeggeBot,Anarcho-capitalism,robot  Adding: [[no:Anarkokapitalisme]]
2007-05-09T22:48:47+00:00,129663479,129369086,0,Wereshow~enwiki,Anarcho-capitalism,not to be confused with corporatism
2006-05-15T14:23:17+00:00,53318389,53300067,0,Rehpotsirhc,Anarcho-capitalism,Revert to revision 53199048 using [[:en:Wikipedia:Tools/Navigation_popups|popups]]
2006-06-03T18:57:41+00:00,56698869,56311775,0,72.181.106.20,Anarcho-capitalism,/* Anarcho-capitalist websites and articles */
2006-10-14T23:56:59+00:00,81491731,81038323,0,71.215.122.19,Anarcho-capitalism,/* External links */  added a link
2006-06-19T20:48:34+00:00,59502941,59502168,0,WickedWanda,Anarcho-capitalism,/* Anarcho-capitalist websites and articles */ added Anarcho-capitalist FAQ
2008-04-01T19:46:19+00:00,202618764,202118716,0,83.226.133.116,Anarcho-capitalism,/* Anarcho-capitalism today */
2008-05-23T22:28:16+00:00,214516804,212413223,0,LemmeyBOT,Anarcho-capitalism,Combined Duplicate Refs into Named Refs
2007-02-09T02:16:25+00:00,106738630,106556001,0,Rei-bot,Anarcho-capitalism,robot  Modifying: [[da:Anarkokapitalisme]]
2008-01-01T12:48:41+00:00,181375369,181375304,0,Stevenscollege,Anarcho-capitalism,/* Fiction */
2006-08-01T08:33:11+00:00,67006299,66973148,0,Blahblahblahblahblahblah,Anarcho-capitalism,"This tag was placed because there was demonstrated evidence of misused referances, so it can't be removed by calling on ""assume good faith"""
2008-01-30T03:08:02+00:00,187844911,187825948,0,190.154.160.9,Anarcho-capitalism,/* See also */
2007-02-16T21:52:40+00:00,108700956,108362788,0,MetsBot,Anarcho-capitalism,manually approved [[WP:AWB/T|Typo fixing]] and cleanup  using [[Project:AWB|AWB]]
2006-10-29T11:17:17+00:00,84403604,84355556,0,Bishonen,Anarcho-capitalism,"Protected Anarcho-capitalism: Edit war again. Cool-down protection, please resolve issues on Talk. [edit=sysop:move=sysop]"
2009-01-08T19:05:47+00:00,262802255,262406337,0,75.136.214.35,Anarcho-capitalism,/* Anarcho-capitalism today */
2010-01-23T20:44:25+00:00,339593662,337550342,0,95.148.84.134,Anarcho-capitalism,"/* Another state would replace the first */ Removed use of the word ""some"" to refer to a group of people where said group is unspecified."
2007-06-01T04:25:57+00:00,135013704,134512467,0,Terjen,Anarcho-capitalism,"/* Criticisms of anarcho-capitalism */ rm ""that"" from subsection titles"
2009-02-01T14:17:01+00:00,267829127,267621721,0,121.91.80.43,Anarcho-capitalism,"Fixed link to ""Common Property in Anarcho-Capitalism"""
2007-02-08T12:33:14+00:00,106556001,106555830,0,Flix2000,Anarcho-capitalism,/* Celtic Ireland (650-1650) */
2008-03-24T06:57:13+00:00,200484124,200131652,0,DMZ403,Anarcho-capitalism,
2009-09-18T22:45:23+00:00,314810188,314666310,0,Dabomb87,Anarcho-capitalism,[[WP:MSH]]
2008-08-03T16:42:07+00:00,229606578,229466404,0,78.45.102.217,Anarcho-capitalism,"Updated links to the Stefan Molyneux's books, as they are free now"
2006-05-12T14:19:30+00:00,52837188,52796511,0,CJGB,Ayn Rand,/* The Objectivist Center */ rv prev edit -  POV
2009-11-10T06:13:43+00:00,324999969,324961135,0,216.114.245.253,Ayn Rand,/* Early life */
2007-01-01T00:38:22+00:00,97636787,97636446,0,209.204.110.46,Anarcho-capitalism,/* The nonaggression axiom */
2006-10-14T03:21:19+00:00,81338788,81024049,0,Jzader,Ayn Rand,/* Organizations promoting Ayn Rand's philosophy */
2007-01-27T02:01:26+00:00,103517518,103438662,0,Badagnani,Black rice,
2006-08-13T21:13:47+00:00,69452894,59766083,0,Cheeseandtoast,Black rice,
2007-03-18T13:25:50+00:00,116008284,115971128,0,88.112.220.119,Breakfast cereal,cleanup
2007-10-11T15:45:58+00:00,163824302,163189579,0,122.164.186.15,Breakfast cereal,/* India */
2006-08-20T03:51:34+00:00,70703343,70697182,0,Ali K,Breakfast cereal,Reverted edits by [[Special:Contributions/24.144.133.30|24.144.133.30]] to last version by BorgQueen using [[WP:JS|godmode-light.js]].
2008-02-21T01:11:28+00:00,192935190,192935014,0,The Hybrid,Capitalism,Reverted edits by [[Special:Contributions/209.94.201.210|209.94.201.210]] ([[User talk:209.94.201.210|talk]]) to last version by Erlyrisa
2009-02-22T14:53:03+00:00,272501717,271976282,0,Methron,Breakfast cereal,/* History */ added info and source
2007-09-20T05:06:40+00:00,159109502,158980225,0,Patman2648,Capitalism,/* Neoclassical economics and the Chicago School */ undid vandalism
2007-11-28T00:54:41+00:00,174262588,173992977,0,Northumbrian,Capitalism,Tweaked wording.
2009-12-07T18:08:29+00:00,330280905,330280285,0,Thatguyflint,Capitalism,Reverted edits by [[Special:Contributions/174.71.87.142|174.71.87.142]] to last revision by Synthebot ([[Wikipedia:Huggle|HG]])
2008-05-30T00:02:09+00:00,215852915,215678924,0,Pyrospirit,Capitalism,"/* Intro */ Fix punctuation, use otheruses template for hatnote."
2007-12-31T03:04:46+00:00,181116719,180606500,0,71.247.184.111,Capitalism,
2009-12-21T03:36:03+00:00,332978781,332945402,0,HyperCapitalist,Capitalism,/* Criticism */
2007-08-16T13:07:19+00:00,151596510,151596305,0,Edward321,Capitalism,[[WP:UNDO|Undid]] revision 151596305 by [[Special:Contributions/Pacblo8|Pacblo8]] ([[User talk:Pacblo8|talk]])
2008-01-14T08:12:51+00:00,184219932,184195023,0,66.227.165.166,Capitalism,/* Capitalism following the Great Depression */
2007-12-15T06:29:45+00:00,178035605,178035350,0,Delldot,Capitalism,Reverted edits by [[Special:Contributions/72.128.66.195|72.128.66.195]] ([[User talk:72.128.66.195|talk]]) to last version by Gaius Cornelius
2009-10-05T08:52:59+00:00,318008508,318008112,0,Mysterious Dragon,Capitalism,[[WP:UNDO|Undid]] revision 318008112 by [[Special:Contributions/202.83.172.73|202.83.172.73]] ([[User talk:202.83.172.73|talk]])
2010-01-21T14:41:12+00:00,339155574,339155176,0,Ajh16,Capitalism,Reverted edits by [[Special:Contributions/Dreamsaregood|Dreamsaregood]] to last revision by Kateshortforbob ([[WP:HG|HG]])
2009-04-11T03:06:41+00:00,283106292,283105771,0,Shadowjams,Capitalism,Reverted 2 edits by [[Special:Contributions/24.46.192.44|24.46.192.44]] identified as [[WP:VAND|vandalism]] to last revision by [[User:69.152.215.83|69.152.215.83]]. ([[WP:TW|TW]])
2009-06-25T10:39:00+00:00,298536463,298382789,0,174.124.182.180,Capitalism,false dicatomy
2009-09-01T13:30:41+00:00,311273745,311273559,0,Scjessey,Capitalism,Reverted 1 edit by [[Special:Contributions/71.241.218.107|71.241.218.107]]; Restore from nonsense redirect. using [[WP:TWINKLE|TW]]
2006-11-25T16:34:54+00:00,90042009,90018295,0,86.124.221.52,Capitalism,/* Proponents of capitalism */
2006-09-24T04:05:53+00:00,77477601,77431932,0,Mb1000,Capitalism,Format
2007-07-19T00:58:16+00:00,145562539,145562157,0,Human capital,Capitalism,
2007-04-28T16:38:36+00:00,126653863,126592731,0,81.101.143.89,Capitalism,
2010-02-09T13:07:40+00:00,342923047,342922691,0,Favonian,Capitalism,Reverted 1 edit by [[Special:Contributions/80.191.149.76|80.191.149.76]] identified as [[WP:VAND|vandalism]] to last revision by [[User:Ajorgens|Ajorgens]]. ([[WP:TW|TW]])
2006-05-17T01:35:24+00:00,53613045,53612936,0,Stevertigo,Capitalism,
2009-08-02T13:13:07+00:00,305627845,305626847,0,124.191.50.51,Capitalism,
2006-11-21T19:20:38+00:00,89283574,89263984,0,68.186.216.112,Capitalism,/* Marxian political economy */
2008-01-23T22:13:09+00:00,186437370,186434889,0,Doopdoop,Capitalism,[[WP:UNDO|Undid]] revision 186434889 by [[Special:Contributions/189.139.147.12|189.139.147.12]] ([[User talk:189.139.147.12|talk]]) rvv
2009-01-02T00:36:04+00:00,261354401,261354267,0,Rick7425,Capitalism,"/* The Crisis of the 14th Century and the ""Pre-History of Capitalism"" */"
2008-01-11T18:12:57+00:00,183671961,183671839,0,49TL,Capitalism,Reverted edits by [[Special:Contributions/71.7.3.77|71.7.3.77]] ([[User talk:71.7.3.77|talk]]) to last version by Nakon
2007-05-30T14:03:43+00:00,134564501,134564428,0,68.32.87.134,Capitalism,"/* Democracy, the state and legal frameworks */"
2009-05-11T00:43:23+00:00,289162665,289162544,0,24.250.27.7,Capitalism,
2008-03-17T14:03:12+00:00,198856167,198840434,0,Serche,Capitalism,/* External links */
2008-10-27T19:00:34+00:00,248032377,248031618,0,MrOllie,Capitalism,Reverted 1 edit by [[Special:Contributions/65.123.141.190|65.123.141.190]] identified as [[WP:VAND|vandalism]] to last revision by [[User:VoluntarySlave|VoluntarySlave]]. ([[WP:TW|TW]])
2008-02-26T04:31:48+00:00,194102672,193994919,0,70.44.138.37,Capitalism,
2010-02-05T00:14:47+00:00,341998095,341997994,0,Ronhjones,Capitalism,Reverted edits by [[Special:Contributions/205.148.15.129|205.148.15.129]] to last revision by Soxwon ([[WP:HG|HG]])
2008-05-18T04:10:11+00:00,213182349,213083797,0,Blueelectricstorm,Capitalism,[[WP:UNDO|Undid]] revision 213083797 by [[Special:Contributions/76.232.0.142|76.232.0.142]] ([[User talk:76.232.0.142|talk]])
2008-04-11T13:34:27+00:00,204915251,204915120,0,Nmacpherson,Capitalism,Reverted edits by [[Special:Contributions/68.250.20.1|68.250.20.1]] ([[User talk:68.250.20.1|talk]]) to last version by Chendy
2006-10-27T07:18:57+00:00,84007363,84007066,0,SWAdair,Capitalism,rv
2008-09-12T12:05:09+00:00,237918279,237791017,0,Tony1,Capitalism,"Date audit, [[User:Lightmouse/monobook.js/script.js|script]]-assisted; see [[Wikipedia:MOSNUM#Date_autoformatting|mosnum]] | Delink common terms. See: [[wp:overlink]]"
2007-02-10T20:20:24+00:00,107146748,107142188,0,BernardL,Capitalism,rv pov pushing see talk
2009-09-10T13:12:30+00:00,312987668,312986441,0,The Thing That Should Not Be,Capitalism,Reverted edits by [[Special:Contributions/206.41.88.186|206.41.88.186]] to last revision by 124.184.84.59 ([[WP:HG|HG]])
2009-03-03T17:31:30+00:00,274723115,274723018,0,Lofty abyss,Capitalism,Reverted edits by [[Special:Contributions/70.89.171.97|70.89.171.97]] to last revision by ClueBot ([[WP:HG|HG]])
2007-04-14T17:43:49+00:00,122789720,122392443,0,124.43.216.133,Capitalism,/* Classical political economy */
2008-08-10T23:24:05+00:00,231116050,230927744,0,James Kemp,Capitalism,Tidy opening statement.
2009-01-19T21:58:20+00:00,265163844,265163209,0,71.175.32.178,Capitalism,/* Etymology */
2009-11-05T22:11:36+00:00,324162596,324162488,0,Atif.t2,Capitalism,Reverted edits by [[Special:Contributions/207.197.99.251|207.197.99.251]] to last revision by 68.50.105.109 ([[WP:HG|HG]])
2008-11-01T18:53:56+00:00,249039347,249033831,0,Nock3r,Capitalism,/* Criticism */ dab - [[inequality]] to [[economic inequality]]
2007-02-02T09:16:58+00:00,105054448,105045686,0,Madhava 1947,Capitalism,/* See also */
2008-02-18T01:56:39+00:00,192198840,192198612,0,70.9.56.192,Capitalism,/* Weberian political sociology */
2009-11-19T14:59:08+00:00,326739504,326696947,0,84.12.14.94,Capitalism,/* Further reading */
2006-08-04T06:34:52+00:00,67590519,67590374,0,24.154.129.20,Capitalism,/* Criticisms of capitalism */
2008-11-17T15:50:04+00:00,252379035,252311645,0,Hello Socialism!,Capitalism,"no, the self employed are capitalists too"
2007-09-29T22:45:06+00:00,161202756,161191052,0,ElinorD,Capitalism,Reverted edits by [[Special:Contributions/Penny1020|Penny1020]] ([[User talk:Penny1020|talk]]) to last version by Jacob Haller
2007-12-11T06:20:45+00:00,177161298,177148578,0,76.104.153.139,Capitalism,removed spam
2009-07-05T00:23:02+00:00,300323792,299625780,0,24.215.72.134,Capitalism,
2007-09-18T14:18:09+00:00,158728854,158728569,0,10014derek,Capitalism,Reverted 1 edit by [[Special:Contributions/216.11.203.159|216.11.203.159]] identified as [[WP:VAND|vandalism]] to last revision by [[User:64.5.147.102|64.5.147.102]]. using [[WP:TW|TW]]
2009-05-25T22:53:11+00:00,292316291,292314720,0,98.207.209.157,Capitalism,/* See also */
2008-08-09T01:04:58+00:00,230725735,230258828,0,MoonHoax,Capitalism,marx's thoughts on the matter
2009-02-17T22:35:07+00:00,271440029,271439990,0,Eric-Wester,Capitalism,Reverted edits by [[Special:Contributions/72.177.185.62|72.177.185.62]] to last revision by RexNL ([[WP:HG|HG]])
2009-01-31T15:27:41+00:00,267633506,267633023,0,24.247.173.227,Capitalism,
2008-08-31T19:24:13+00:00,235427396,235427361,0,Blehfu,Capitalism,Reverted edits by [[Special:Contributions/69.19.14.26|69.19.14.26]] to last version by Iridescent ([[WP:HG|HG]])
2008-02-11T18:20:18+00:00,190670016,190278885,0,Yoshi ix,Capitalism,/* Capitalist Philosophy */
2007-11-28T23:59:52+00:00,174485561,174485183,0,Giftlite,Capitalism,/* See also */ partition list
2009-06-19T03:11:42+00:00,297290930,297290854,0,Alansohn,Capitalism,Reverted edits by [[Special:Contributions/74.105.80.42|74.105.80.42]] to last revision by Nubeli ([[WP:HG|HG]])
2008-10-20T09:32:25+00:00,246464372,246464295,0,Matthew Yeager,Capitalism,restoring last un-vandal copy
2009-10-08T01:02:59+00:00,318572826,318511994,0,CJKing15,Capitalism,/* Criticism */
2009-01-28T21:40:52+00:00,267055423,267055262,0,Caltas,Capitalism,Reverted 1 edit by [[Special:Contributions/65.210.161.169|65.210.161.169]] identified as [[WP:VAND|vandalism]] to last revision by [[User:Singwaste|Singwaste]].
2008-11-27T14:37:40+00:00,254426383,254426299,0,Paulkappelle,Capitalism,[[WP:UNDO|Undid]] revision 254426299 by [[Special:Contributions/78.151.75.79|78.151.75.79]] ([[User talk:78.151.75.79|talk]])
2010-01-02T01:53:35+00:00,335382358,335377870,0,67.86.11.12,Capitalism,/* Support */
2008-07-28T04:37:16+00:00,228324572,227974693,0,AdultSwim,Capitalism,Duplicate Named References
2009-09-13T21:45:18+00:00,313662015,313583366,0,138.16.56.119,Capitalism,/* History */ excessive space
2008-01-19T21:52:21+00:00,185508178,185465948,0,Darklilac,Capitalism,trying to fix scott reference
2009-01-02T05:41:40+00:00,261400871,261354401,0,203.219.101.184,Capitalism,added allocation of resources bit
2008-06-03T00:01:40+00:00,216737920,216478272,0,Andycjp,Capitalism,/* Support */ red link
2007-04-20T19:00:30+00:00,124428780,124306485,0,201.255.169.218,Capitalism,"/* External links */ Marx's Capital it's already in the ""Sources and further reading"" section."
2008-10-19T16:58:29+00:00,246314784,246314572,0,66.189.37.192,Capitalism,/* Notes */
2008-05-22T01:19:19+00:00,214088081,214088062,0,Zalgo,Capitalism,Reverted edits by [[Special:Contributions/67.189.76.27|67.189.76.27]] ([[User talk:67.189.76.27|talk]]) to last version by Johnsy88
2007-03-23T00:11:27+00:00,117167326,117125939,0,69.86.210.104,Capitalism,/* Critics of capitalism */
2009-04-20T00:10:48+00:00,284909813,284909649,0,CardinalDan,Capitalism,Reverted 1 edit by [[Special:Contributions/99.135.89.144|99.135.89.144]] identified as [[WP:VAND|vandalism]] to last revision by [[User:Soxwon|Soxwon]]. using [[WP:TWINKLE|TW]]
2009-02-21T06:15:02+00:00,272216838,272216804,0,Lofty abyss,Capitalism,Reverted edits by [[Special:Contributions/24.25.218.93|24.25.218.93]] to last revision by Soxwon ([[WP:HG|HG]])
2008-12-03T13:40:16+00:00,255628377,255628322,0,129.215.162.233,Capitalism,/* Mercantilism */
2007-06-19T21:20:26+00:00,139291601,139017584,0,T.C. Craig,Capitalism,once again: the reduction of child-labor was because of law - not market forces including a reduction of working hours hence the 40 hour workweek 8 hour day(US)
2009-04-15T00:55:24+00:00,283902696,283902566,0,Alexius08,Capitalism,Reverted edits by [[Special:Contributions/65.35.53.57|65.35.53.57]] to last revision by 71.112.22.237 ([[WP:HG|HG]])
2009-03-18T18:46:35+00:00,278162296,277836820,0,66.82.9.74,Capitalism,
2010-01-13T01:27:49+00:00,337510258,337508698,0,Boomshadow,Capitalism,[[WP:UNDO|Undid]] revision 337508698 by [[Special:Contributions/24.11.133.184|24.11.133.184]] ([[User talk:24.11.133.184|talk]])rv unexplained removal
2009-12-10T19:05:53+00:00,330913580,330899380,0,167.206.19.12,Capitalism,"/* Industrialism */  Deleted a random occurrence of ""lol"" in the middle of the section."
2007-04-29T21:03:26+00:00,126942716,126942079,0,Aarktica,Capitalism,[[WP:UNDO|Undid]] revision 126942079 by [[Special:Contributions/24.197.132.19|24.197.132.19]] ([[User talk:24.197.132.19|talk]])
2007-04-05T21:39:52+00:00,120586133,120585665,0,Sean09876,Capitalism,
2008-01-21T11:47:01+00:00,185850240,185850158,0,Zanysatsuma,Capitalism,Reverted edits by [[Special:Contributions/59.103.57.59|59.103.57.59]] ([[User talk:59.103.57.59|talk]]) to last version by JLMadrigal
2009-12-25T01:08:44+00:00,333896559,333896403,0,Cornugon,Capitalism,/* Mercantilism */
2007-09-15T23:07:03+00:00,158147727,158120873,0,70.190.202.216,Capitalism,/* Neoclassical economics and the Chicago School */
2008-09-17T15:51:31+00:00,239046291,239046023,0,67.43.20.244,Capitalism,
2006-10-26T17:52:36+00:00,83882757,83833712,0,198.104.109.49,Capitalism,/* Classical political economy */
2009-10-07T19:24:16+00:00,318511994,318511779,0,ChildofMidnight,Capitalism,one more
2008-10-29T21:19:33+00:00,248483046,248482701,0,ThreeDee912,Capitalism,Reverted 2 edits by [[Special:Contributions/79.66.0.168|79.66.0.168]] identified as [[WP:VAND|vandalism]] to last revision by [[User:Tohd8BohaithuGh1|Tohd8BohaithuGh1]]. ([[WP:TW|TW]])
2008-01-28T00:05:56+00:00,187358357,187356309,0,CWii,Capitalism,Reverted 1 edit by [[Special:Contributions/74.5.189.214|74.5.189.214]] to last version by Doopdoop
2009-09-03T12:53:42+00:00,311648117,311647806,0,79.79.49.132,Capitalism,
2007-11-23T15:38:28+00:00,173294882,173294845,0,Animum,Capitalism,Reverted edits by [[Special:Contributions/68.163.110.10|68.163.110.10]] ([[User talk:68.163.110.10|talk]]) to last version by 68.54.160.137
2007-12-17T18:31:03+00:00,178546753,178545514,0,71.59.24.218,Capitalism,/* Neoclassical economics and the Chicago School */
2008-09-23T00:23:54+00:00,240329025,240328975,0,X!,Capitalism,Reverted edits by [[Special:Contributions/69.253.81.191|69.253.81.191]] to last version by Snigbrook ([[WP:HG|HG]])
2008-01-31T19:00:16+00:00,188204224,188179210,0,161.97.208.103,Capitalism,
2006-06-01T18:04:52+00:00,56356001,56355906,0,204.102.107.162,Capitalism,/* Capitalist theory */
2007-10-19T10:26:26+00:00,165600901,165087924,0,DragonBot,Capitalism,robot  Adding: [[hi:पूंजीवाद]]
2006-05-27T22:53:35+00:00,55484424,54787941,0,GregorB,Capitalism,Otheruses template
2007-03-09T20:24:21+00:00,113906969,113883359,0,152.3.183.196,Capitalism,/* Finance capitalism and monopolies */ Moved Rothbard ref and added explanation
2007-01-26T07:33:33+00:00,103333572,103280977,0,140.211.138.74,Capitalism,Removed vandalism at bottom of page
2009-07-16T08:23:03+00:00,302379566,302225220,0,221.120.210.166,Capitalism,/* History */
2009-04-13T19:22:04+00:00,283623571,283453007,0,99.226.155.70,Capitalism,/* Mercantilism */
2007-03-14T13:17:38+00:00,115047232,114835566,0,141.85.0.83,Capitalism,
2006-05-23T22:15:03+00:00,54787941,54784594,0,66.207.142.163,Capitalism,
2007-03-08T18:18:41+00:00,113623759,113618464,0,165.138.53.100,Capitalism,/* Capitalism following the Great Depression */
2008-05-02T01:29:45+00:00,209600225,209242339,0,La Pianista,Capitalism,"Removed unnecessary ""headline text"""
2007-02-16T16:42:51+00:00,108632706,108599159,0,Bejnar,Capitalism,"/* See also */ add Merchantilism, realphabatize"
2008-02-20T16:40:08+00:00,192824513,192816750,0,Erlyrisa,Capitalism,removed americentric trend driven labelling (Islamic Age? vs. Ottoman)
2007-07-11T21:53:03+00:00,144055028,143900852,0,71.229.186.182,Capitalism,Removed
2007-07-14T16:45:56+00:00,144625956,144372332,0,89.164.18.13,Capitalism,/* External links */
2009-11-06T09:44:13+00:00,324249011,324248741,0,195.153.91.169,Capitalism,/* Etymology and early usage */
2009-06-27T02:02:59+00:00,298863687,298863147,0,Sky Attacker,Capitalism,rv to old revision
2007-04-23T01:30:45+00:00,125026054,125016314,0,69.236.107.199,Capitalism,/* History of capitalism */
2009-12-14T08:52:02+00:00,331587920,331263955,0,Junuxx,Capitalism,/* Economic growth */
2007-10-16T00:57:48+00:00,164852948,164852851,0,CounterVandalismBot,Capitalism,Automatically reverting possible vandalism by [[Special:Contributions/71.10.138.93|71.10.138.93]] to last good revision by [[User:SmackBot|SmackBot]]
2008-09-21T22:22:36+00:00,240097675,239837926,0,Homo logos,Capitalism,amazing absences
2007-04-06T13:17:26+00:00,120726260,120725583,0,Polymerbringer,Capitalism,[[WP:UNDO|Undid]] revision 120725583 by [[Special:Contributions/214.13.225.10|214.13.225.10]] ([[User talk:214.13.225.10|talk]])
2008-06-14T09:30:51+00:00,219253444,219253045,0,206.116.125.142,Capitalism,Linked the first occurence of the word state.
2009-11-25T12:03:02+00:00,327850051,327805754,0,193.1.217.20,Capitalism,/* Economic growth */ noting opposition to economic growth
2007-04-08T10:04:27+00:00,121163316,121113671,0,Lelkesa,Capitalism,origin of the term
2007-11-15T19:28:48+00:00,171723611,171064788,0,BotMultichill,Capitalism,robot  Adding: [[fo:Kapitalisma]]
2006-07-10T03:52:04+00:00,62988293,62988159,0,JBogdan,Capitalism,replaced comma with period/* Catholic Position */
2009-02-04T16:04:18+00:00,268489974,268384631,0,192.91.172.36,Capitalism,
2007-04-04T02:32:45+00:00,120134978,119825730,0,85.211.168.238,Capitalism,/* History of capitalism */
2007-06-23T01:49:55+00:00,140029911,140018993,0,81.174.159.73,Capitalism,
2007-08-27T01:53:35+00:00,153859665,153769753,0,PipepBot,Capitalism,robot  Adding: [[hak:Chṳ̂-pún chú-ngi]]
2006-10-12T22:58:38+00:00,81102111,81102064,0,DancingPenguin,Capitalism,Reverted 1 edit by [[Special:Contributions/71.115.184.162|71.115.184.162]] ([[User talk:71.115.184.162|talk]]) to last revision (80918658) by AntiVandalBot using [[WP:VPRF|VP]]
2009-12-18T14:39:14+00:00,332495716,331745408,0,71.185.10.126,Capitalism,
2006-09-16T19:28:01+00:00,76095168,76007377,0,71.76.238.227,Category talk:Cults,/* Saving category from deletion - my suggestion */
2006-07-06T10:34:50+00:00,62347569,62132929,0,Really Spooky,Category talk:Cults,
2008-03-25T02:40:34+00:00,200704239,199515116,0,Editor2020,Category:Cults,
2007-08-25T13:23:08+00:00,153546959,123085513,0,Sfacets,Category:Cults,see [[Cults]]
2009-06-28T12:18:44+00:00,299106922,267687506,0,91.86.249.12,Category:Republics,
2008-03-04T11:57:50+00:00,195782072,187667023,0,Baronnet,Category:Republics,[[ky:Category:Республика]]
2006-06-12T17:34:46+00:00,58236644,58236323,0,Centinel2,Classical liberalism,/* External links */
2009-01-30T20:56:40+00:00,267474569,267089442,0,Miacek,Classical liberalism,"/* Opposition to classical liberalism */ removed unreferenced, unsuitable"
2007-05-15T15:44:04+00:00,131050625,130373308,0,65.24.147.148,Classical liberalism,/* Criticism of neo-classical economists as classical liberals */
2008-02-10T16:15:09+00:00,190404454,189447655,0,Snake item,Classical liberalism,source doesnt say this
2008-09-18T05:31:48+00:00,239200410,239141184,0,Dirtybutclean,Classical liberalism,"/* See also */ Added The Economist, quite possibly the most influential classic lib. pub today"
2006-12-22T07:13:56+00:00,95884756,95700873,0,72.68.205.240,Classical liberalism,
2007-06-17T14:20:44+00:00,138768472,138766305,0,68.97.17.2,Classical liberalism,"/* ""Classical liberalism"" and libertarianism */ -can't find him on Princeton's webpage, I assume he is no longer teaching there"
2008-09-13T13:14:13+00:00,238140942,237361819,0,209.152.72.229,Classical liberalism,
2006-09-13T20:44:36+00:00,75574020,75572411,0,Chaucer~enwiki,Classical liberalism,/* Disputes over whether modern liberalism is derived from classical liberalism */
2006-10-04T02:28:16+00:00,79380348,79224015,0,Doctors without suspenders,Classical liberalism,/* Thomas Paine */ Adding Jefferson -- a protypical classical liberal
2007-04-18T14:48:58+00:00,123818231,123816362,0,O^O,Classical liberalism,*ws*
2006-06-01T07:10:35+00:00,56276808,56220173,0,Harryboyles,Classical liberalism,remove duplicate word  using [[Wikipedia:AutoWikiBrowser|AWB]]
2009-04-18T02:08:23+00:00,284543767,284543574,0,130.160.195.7,Classical liberalism,"/* ""Classical liberalism"" and libertarianism */"
2007-10-14T18:53:34+00:00,164545528,164543317,0,68.110.172.111,Classical liberalism,removed tags which were added because of one persons opinion which differes from cited history in this section.  provide evidence of POV and OR before putting up tags.
2006-05-11T12:20:21+00:00,52647601,52647520,0,Electionworld,Classical liberalism,
2009-10-27T02:43:25+00:00,322270119,322264573,0,J8079s,Classical liberalism,Reverted 1 edit by [[Special:Contributions/149.152.20.216|149.152.20.216]]; Ip vandal. ([[WP:TW|TW]])
2006-05-22T04:31:37+00:00,54473917,54332558,0,Stephen Compall,Classical liberalism,/* Overview */ add paragraph breaks
2009-05-20T13:17:05+00:00,291171734,290799558,0,Citation bot 1,Classical liberalism,"Citation maintenance. [Pu]Added: publisher, location. Unified citation types.  You can [[WP:UCB|use this bot]] yourself! Please [[User:DOI_bot/bugs|report any bugs]]."
2008-10-12T17:53:34+00:00,244811478,244806693,0,66.33.233.139,Classical liberalism,
2008-02-25T22:09:53+00:00,194027287,192899993,0,Philip Stevens,Classical liberalism,Great Britain is an island NOT a country
2006-06-19T17:04:00+00:00,59464118,58954085,0,72.181.106.20,Classical liberalism,/* Key Thinkers in Classical Liberalism */ added molinari
2007-11-29T21:45:13+00:00,174689720,173811273,0,130.108.192.126,Classical liberalism,
2007-09-10T04:27:43+00:00,156857270,156418871,0,Tacorama,Classical liberalism,"[[WP:UNDO|Undid]] revision 156418871 by [[Special:Contributions/Xmacro|Xmacro]] ([[User talk:Xmacro|talk]]) economic liberalism, not economic conservativism"
2006-08-30T00:37:34+00:00,72722816,72072554,0,NaBUru38,Classical liberalism,"Key Thinkers in Classical Liberalism - unexpand refernces moved to a ""other thinkers"" subheading"
2007-06-21T09:28:07+00:00,139633646,139466029,0,83.76.228.204,Classical liberalism,/* External links */
2010-01-14T21:43:48+00:00,337875735,337829432,0,Bobisbob2,Classical liberalism,
2009-02-16T00:40:08+00:00,271005636,269608334,0,Cmskog,Classical liberalism,/* Overview */
2006-12-23T12:27:43+00:00,96093288,96088338,0,193.170.48.226,Classical liberalism,
2007-10-05T07:36:43+00:00,162415288,162176416,0,67.109.70.3,Classical liberalism,Removed inflammatory opinionated text.
2007-06-23T19:26:08+00:00,140158715,139633646,0,Lost.goblin,Classical liberalism,Reword/reorganize to be more clear and reduce POV
2006-11-18T12:55:59+00:00,88612060,88612026,0,Steel,Classical liberalism,+Protected
2006-09-05T23:39:56+00:00,74039172,74037670,0,Warren Dew,Classical liberalism,"Clarified that ""usurpers"" is Hayek's opinion, not the opinion of the article."
2008-11-22T08:48:42+00:00,253359560,251542640,0,Gegorg,Classical liberalism,/* History */
2009-02-02T23:21:00+00:00,268135674,267474569,0,67.159.77.180,Classical liberalism,inserted softening language to the synonyms -- there is no direct link either logically or tautalogically
2008-12-05T21:21:18+00:00,256114503,255746876,0,Tohnayy,Classical liberalism,
2007-03-02T22:40:49+00:00,112184766,110330716,0,Harryboyles,Classical liberalism,remove tag: use the {{citation needed}} tag instead
2008-08-24T03:36:36+00:00,233860948,233757565,0,Stevenmitchell,Classical liberalism,Is the editor familiar with Thomas Paine?
2008-06-10T02:48:48+00:00,218320093,218320059,0,Super-Magician,Classical liberalism,Reverted edits by [[Special:Contributions/71.238.96.119|71.238.96.119]] to last version by 200.236.35.26 (using [[WP:HG|Huggle]])
2007-06-13T00:18:13+00:00,137791415,135891567,0,68.117.141.182,Classical liberalism,stylistic correction
2009-04-29T03:54:14+00:00,286787340,284543767,0,128.180.206.117,Classical liberalism,/* Redefinition of liberalism from laissez-faire form to interventionist form */
2006-07-27T19:25:36+00:00,66213725,65846681,0,134.2.236.61,Classical liberalism,/* The split between classical liberalism and modern liberalism */
2006-05-12T05:41:53+00:00,52792363,52790059,0,Cydebot,Classical liberalism,Robot - Bypassing citation needed redirect.
2007-04-18T00:34:17+00:00,123682748,123486036,0,165.228.129.11,Classical liberalism,
2007-10-19T09:21:27+00:00,165594003,164793685,0,58.96.69.32,Classical liberalism,/* Disputes over whether modern liberalism is derived from classical liberalism */
2007-02-10T14:24:43+00:00,107080570,106613950,0,Rintrah,Classical liberalism,removing errant comma
2006-11-02T08:48:12+00:00,85219781,85219757,0,Karafias,Classical liberalism,Reverted 1 edits by [[Special:Contributions/Demoscho|Demoscho]] ([[User talk:Demoscho|talk]]) to last revision (84541211) by AntiVandalBot using [[WP:VP2|VP2]]
2007-05-03T22:16:51+00:00,128070459,128070293,0,Burntsauce,Classical liberalism,Reverted 1 edit by [[Special:Contributions/24.188.155.21|24.188.155.21]] identified as [[WP:VANDAL|vandalism]] to last revision by [[User:Johnbull|Johnbull]].
2008-08-15T15:07:14+00:00,232117806,231272259,0,Tahgof,Classical liberalism,"/* ""Classical liberalism"" and libertarianism */  smoothed out one very long sentence into two sentences"
2010-02-01T20:19:13+00:00,341335148,341276895,0,24.223.136.186,Classical liberalism,/* Definitions */
2008-05-07T16:05:14+00:00,210829911,210490100,0,80.6.116.129,Classical liberalism,"Deleted an inaccurate and nonsensical point about suicide - though this MAY be in the writings of some classical liberals, nothing in the concept of classical liberalism itself positions it vs suicide"
2008-04-23T13:50:31+00:00,207603657,207602635,0,Dspencer,Classical liberalism,de-enbolden introduction and eliminate italics
2006-06-05T02:00:00+00:00,56927949,56655086,0,Celsius1414,Classical liberalism,/* Thomas Paine */ missing words
2008-04-01T22:18:28+00:00,202655010,202652013,0,G-Man,Classical liberalism,"No it's not, see [[Liberal Party (UK)]]"
2007-01-10T06:55:54+00:00,99719138,98779958,0,Gzkn,Classical liberalism,dating C/E tag  using [[Project:AWB|AWB]]
2010-01-27T02:36:14+00:00,340263593,339921306,0,Sw2k7,Collectivism (disambiguation),grammar/wiki
2008-01-21T17:21:27+00:00,185906686,185906377,0,71.10.244.255,Collectivism (disambiguation),
2008-09-28T14:50:20+00:00,241540155,238333049,0,143.89.188.6,Collectivism (disambiguation),/* Collectivist societies */
2009-08-03T16:49:14+00:00,305843427,305843410,0,Irbisgreif,Collectivism (disambiguation),Reverted edits by [[Special:Contributions/70.96.239.78|70.96.239.78]] to last revision by 65.216.227.186 ([[WP:HG|HG]])
2009-09-28T15:56:06+00:00,316701896,316701195,0,Sp0,Collectivism (disambiguation),"/* Economics */ In collectivism individuals also own things; however, it is not just individuals. IE, collectivism includes individuals. Hence, ""just individuals"" instead of ""individuals"" own goods."
2008-11-21T03:25:50+00:00,253120912,251707112,0,Ytrab,Collectivism (disambiguation),Added reference with latest research on collectivism.
2008-09-14T10:20:35+00:00,238333049,238210820,0,69.6.107.128,Collectivism (disambiguation),
2008-04-26T15:58:23+00:00,208339104,206797021,0,71.205.14.136,Collectivism (disambiguation),
2009-03-21T08:03:35+00:00,278698872,278234668,0,173.58.199.207,Collectivism (disambiguation),
2008-09-09T18:47:19+00:00,237338389,235992894,0,149.143.193.130,Collectivism (disambiguation),/* Politics */
2007-08-12T04:15:58+00:00,150706799,148934847,0,71.233.90.159,Collectivism (disambiguation),/* Criticism of collectivism */
2008-03-12T22:40:32+00:00,197833471,196646814,0,XTruexTilXDeathx,Collectivism (disambiguation),I fixed the mis-quoted text
2007-11-28T15:49:51+00:00,174388045,174387984,0,Caltas,Collectivism (disambiguation),Reverted 1 edit by [[Special:Contributions/216.162.22.21|216.162.22.21]] identified as [[WP:VAND|vandalism]] to last revision by [[User:DorganBot|DorganBot]].
2008-11-14T04:06:28+00:00,251707112,251208732,0,69.233.1.29,Collectivism (disambiguation),/* Criticism of collectivism */
2007-03-22T05:43:23+00:00,116970285,116970180,0,Guidehead,Collectivism (disambiguation),/* Criticism of collectivism */
2008-10-05T21:12:10+00:00,243266727,242390079,0,83.35.174.97,Collectivism (disambiguation),/* Collectivist societies */
2009-04-18T07:38:36+00:00,284577390,283644970,0,Peloneous,Collectivism (disambiguation),/* Economics */ disambig link fix
2008-07-20T19:38:53+00:00,226857241,224945424,0,71.102.147.44,Collectivism (disambiguation),
2009-03-19T00:40:29+00:00,278234668,278234503,0,132.234.215.87,Collectivism (disambiguation),
2008-10-17T04:15:18+00:00,245823438,245823125,0,Branxton,Collectivism (disambiguation),/* Typology */
2009-10-13T09:19:50+00:00,319592798,319592667,0,211.228.53.157,Collectivism (disambiguation),
2007-09-07T13:05:15+00:00,156264186,156116338,0,Robbot,Collectivism (disambiguation),robot  Removing: [[fi:Kollektivismi]]
2009-11-12T17:41:57+00:00,325468619,324920861,0,AndersBot,Collectivism (disambiguation),robot Adding: [[cy:Cyfunoliaeth]]
2008-08-08T19:25:23+00:00,230671477,230655184,0,66.99.0.129,Collectivism (disambiguation),
2008-05-14T10:17:49+00:00,212319760,212319636,0,24.118.6.186,Collectivism (disambiguation),/* Criticism of collectivism */
2007-12-15T03:06:54+00:00,178011012,169822611,0,96.229.216.13,Corporate capitalism,
2008-11-25T21:09:06+00:00,254089055,246642006,0,78.148.50.159,Corporate capitalism,/* Criticism */ This section is unfounded and embarassingly ungrammatical. Thought it more appropriate to leave blank until something half decent can be written (I can't do it though)!
2007-06-19T20:49:40+00:00,139284874,139092690,0,69.47.186.226,Corporate capitalism,articles shouldn't yell
2007-11-07T08:37:35+00:00,169822611,152809378,0,Apmab1,Corporate capitalism,Expanded with Social Science
2006-10-25T03:02:33+00:00,83562246,62090336,0,ChristianHoogerheyde,Corporate capitalism,
2007-01-12T20:51:49+00:00,100296253,100095226,0,Gringo300,Corporation,added link and removed extra link
2008-10-24T15:30:42+00:00,247397567,247397546,0,Aditya,Corporation,Reverted edits by [[Special:Contributions/204.120.34.174|204.120.34.174]] to last version by Neurolysis ([[WP:HG|HG]])
2006-10-05T13:40:25+00:00,79647049,79646917,0,Dougieb,Corporation,/* See also */ Added Link
2008-04-01T01:28:43+00:00,202442884,202277542,0,AThing,Corporation,/* Criticisms */
2006-07-21T05:14:18+00:00,64983392,64983024,0,160.39.180.81,Corporation,/* See also */
2009-11-07T00:47:55+00:00,324379627,324308596,0,Martarius,Corporation,/* Types of corporations */ spec
2009-08-14T16:00:50+00:00,307957587,307956777,0,24.177.5.103,Corporatism,/* In popular usage */
2009-04-15T16:55:35+00:00,284026386,283809649,0,Vanished User 03,Corporatism,/* External links */
2006-07-21T01:48:24+00:00,64960376,63038018,0,Kaonslau~enwiki,Corporatism,add: [[zh:社團主義]]
2007-04-23T00:24:43+00:00,125009325,125008797,0,Pyrospirit,Corporatism,Reverted edits by [[Special:Contributions/205.172.200.57|205.172.200.57]] ([[User talk:205.172.200.57|talk]]) using [[User:MichaelBillington/MWT|MWT]]
2006-12-13T04:07:09+00:00,93983385,93977491,0,Syphondu,Corporatism,links on a few defining terms at top
2007-10-31T22:07:26+00:00,168389422,168305516,0,65.192.236.140,Corporatism,
2006-10-24T04:25:44+00:00,83359879,83359762,0,Ehusman,Corporatism,/* Free Market criticisms */ italics not quotes for book titles
2009-02-16T03:44:29+00:00,271038776,269316619,0,67.190.109.8,Corporatism,/* Classical theoretical origins */
2009-03-18T14:38:15+00:00,278111302,277805668,0,93.136.136.142,Corporatism,/* See also */
2007-01-09T23:59:44+00:00,99654852,99219369,0,Fixifex,Corporatism,"""east asia studies"" to ""east asian studies"""
2008-12-11T18:35:30+00:00,257318121,255420100,0,Foofighter20x,Corporatism,/* Corporatism and fascism */
2009-07-02T02:40:56+00:00,299815214,299814864,0,Scjessey,Corporatism,Packed with weasel words and original research
2007-10-07T20:40:47+00:00,162938614,162937542,0,Jflaugher,Corporatism,
2006-05-21T12:39:48+00:00,54345360,54345348,0,Jdcooper,Corporatism,
2008-04-01T22:46:48+00:00,202661801,199036007,0,96.245.88.190,Corporatism,/* See also */
2009-07-27T01:29:56+00:00,304392053,304340184,0,Hmains,Corporatism,copyedit
2009-04-18T16:32:17+00:00,284638785,284609928,0,Hmains,Corporatism,remove POV edits
2008-11-20T11:45:40+00:00,252967796,248981834,0,Yamanam,Corporatism,
2006-05-24T10:15:35+00:00,54867338,54345360,0,Nema Fakei,Corporatism,Add Econ Template
2009-03-17T05:14:51+00:00,277805668,275066782,0,158.104.212.123,Corporatism,
2008-08-19T19:25:13+00:00,232963354,232963291,0,StradivariusTV,Corporatism,/* Corporatism and Fascism */
2009-12-23T09:00:57+00:00,333503784,330797449,0,Kai-Hendrik,Corporatism,/* State corporatism */ + wikilink public participation
2007-01-19T13:07:10+00:00,101777225,99654852,0,Colchicum,Corporatism,/* State corporatism */
2007-02-07T03:35:38+00:00,106231095,105878163,0,Baon,Corporatism,/* In social science */ Changed 'conquered by strikes' to 'beset by strikes.' I am guessing the 'conquered' was from a non-native English speaker.
2006-05-15T21:32:32+00:00,53392053,52766761,0,Masonroy,Corporatism,/* Criticism of Corporatism */
2009-04-17T03:41:30+00:00,284351041,284347117,0,Hmains,Corporatism,random web pages are not acceptable sources of anything
2006-05-03T17:35:13+00:00,51391372,51391318,0,RexNL,Corporatism,Reverted edits by [[Special:Contributions/74.8.52.178|74.8.52.178]] ([[User talk:74.8.52.178|talk]]) to last version by 87.218.66.242
2006-10-17T03:21:22+00:00,81926915,81503578,0,65.92.160.136,Corporatism,citation needed
2007-11-25T15:34:28+00:00,173691445,173079742,0,24.180.56.58,Corporatism,grammatical error - incomplete sentence
2006-06-22T21:13:38+00:00,60063024,57902371,0,70.137.153.218,Corporatism,/* Deleted an unessential clause which didn't seem NPOV to me. */
2006-08-12T20:19:01+00:00,69265026,67708658,0,71.126.238.219,Corporatism,/* Criticism of Corporatism */
2007-07-01T10:06:28+00:00,141773950,141275125,0,Qworty,Corporatism,clarification and expansion
2008-01-08T15:17:40+00:00,182959329,182820180,0,Bombastus,Economic liberalism,/* See also */
2007-10-17T00:10:48+00:00,165075728,163742842,0,142.103.168.59,Economic liberalism,/* History of Economic Liberalism */
2006-12-19T19:17:29+00:00,95358002,95357893,0,Checco,Economic liberalism,
2008-02-29T03:51:24+00:00,194823632,194823187,0,Farosdaughter,Economic liberalism,Reverted edits by [[Special:Contributions/216.254.236.110|216.254.236.110]] ([[User talk:216.254.236.110|talk]]) to last version by 71.175.40.201
2006-12-17T19:56:49+00:00,94941031,93378066,0,Greatgavini,Economic liberalism,rm big white space
2006-11-12T18:10:14+00:00,87368832,84116126,0,86.141.87.181,Economic liberalism,/* Decline and revival */
2009-11-17T22:56:42+00:00,326430052,326299295,0,Welsh,Egoist anarchism,"clean up, typos fixed: italian → Italian using [[Project:AutoWikiBrowser|AWB]]"
2007-08-21T23:30:18+00:00,152798672,152798623,0,Theda,Fascism,Reverted edits by [[Special:Contributions/68.113.88.108|68.113.88.108]] ([[User talk:68.113.88.108|talk]]) to last version by Barticus88
2006-06-12T18:26:17+00:00,58244546,58244138,0,Equendil,Fascism,Reverted edits by [[Special:Contributions/84.234.215.241|84.234.215.241]] ([[User_talk:84.234.215.241|talk]]) to version 58244053 by Liftarn using [[User:AmiDaniel/VandalProof|VandalProof]]
2006-06-24T18:30:05+00:00,60368737,60346729,0,24.53.134.92,Fascism,/* Definition */
2007-06-14T23:13:00+00:00,138238127,138237967,0,"Can't sleep, clown will eat me",Fascism,Reverted edits by [[Special:Contributions/65.97.12.253|65.97.12.253]] ([[User talk:65.97.12.253|talk]]) to last version by Onorem
2007-10-10T16:56:10+00:00,163597628,163516065,0,Leonardo Alves,Fascism,/* Fascism and religion */
2008-03-05T08:27:58+00:00,195997962,195997941,0,Steven Crossin,Fascism,Reverted edits by [[Special:Contributions/69.237.145.147|69.237.145.147]] ([[User talk:69.237.145.147|talk]]) to last version by Pb30
2008-02-19T17:27:55+00:00,192592411,192371373,0,24.44.101.137,Fascism,
2009-02-21T19:58:49+00:00,272325583,272325298,0,69.179.60.252,Fascism,/* Political spectrum */
2009-05-21T08:25:02+00:00,291358694,291309946,0,PigFlu Oink,Fascism,[[Wikipedia:Lists of common misspellings | Spelling Fix]] equivelant->equivalent
2009-06-24T14:33:53+00:00,298359527,298237785,0,161.133.8.248,Fascism,"not every one agrees with Payne, also information in the economic section contradicts this"
2008-08-31T17:03:11+00:00,235404895,235370024,0,64.161.114.2,Fascism,"Point to definition of ""reactionary""."
2008-01-15T03:11:38+00:00,184405994,184393018,0,Kakofonous,Fascism,dab repair
2006-06-20T13:06:45+00:00,59619221,59619173,0,CanadianCaesar,Fascism,Reverted edits by [[Special:Contributions/151.198.233.91|151.198.233.91]] ([[User talk:151.198.233.91|talk]]) to last version by Cberlet
2010-02-12T02:06:41+00:00,343467521,343460951,0,75.175.220.26,Fascism,/* Fascist as epithet */
2008-03-29T07:42:32+00:00,201769536,201606867,0,147.102.142.194,Fascism,
2008-10-15T16:20:42+00:00,245467177,245362528,0,163.238.10.4,Fascism,/* Political violence */
2007-02-04T04:18:29+00:00,105498177,105496991,0,Cgingold,Fascism,"Scope of the word Fascism: deleted ""(by both supporters and opponents)"" - not sure why this was there; restored ""Chile]] under Augusto Pinochet"" - this is too obvious to need further comment"
2009-01-31T05:43:02+00:00,267558012,267557844,0,66.119.59.2,Fascism,
2007-07-04T00:51:16+00:00,142357409,142357058,0,71.101.230.195,Fascism,
2008-10-30T10:25:04+00:00,248588293,248588119,0,28421u2232nfenfcenc,Fascism,Reverted edits by [[Special:Contributions/124.177.182.144|124.177.182.144]] to last version by Spylab ([[WP:HG|HG]])
2007-01-26T14:38:17+00:00,103380330,103090214,0,Tito4000,Fascism,/* Scope of the word Fascism */
2008-12-31T05:43:24+00:00,261037339,261010952,0,Hmains,Fascism,/copyedit
2009-10-31T01:02:03+00:00,323023044,323020676,0,136.183.240.185,Fascism,"/* Abortion, eugenics and euthanasia */"
2006-07-12T10:24:02+00:00,63389067,63360585,0,217.29.17.15,Fascism,/* External links */
2007-03-31T17:27:27+00:00,119300112,119300012,0,TruthSeeker777,Fascism,
2006-07-24T07:48:19+00:00,65513261,65510829,0,Alessandro57,Fascism,Reverted vandalism
2008-06-29T03:50:57+00:00,222398589,222333279,0,Quadell,Fascism,"Converting [1] to <ref>, and/or misc fixes, typos fixed: Fuhrer → Führer  using [[Project:AutoWikiBrowser|AWB]]"
2009-06-19T08:26:11+00:00,297322952,297299704,0,Peripitus,Fascism,"Removing instances of image JoseAntonio-DeRivera.jpg because ""Remove image with no fair-use rationale for use in this article - see [[WP:NFCC]]""; using [[WP:TW|TW]]"
2009-03-14T18:17:13+00:00,277226076,277201975,0,BigK HeX,Federal Reserve,/* Criticisms */ wikify
2007-03-18T17:55:13+00:00,116054090,115980650,0,67.80.9.74,Federal Reserve,/* Discount rates */
2008-11-16T01:07:09+00:00,252065376,252064694,0,Cool Hand Luke,Federal Reserve,"No, it's a ""quasi-public"" corporation, which is a term of art. ""Quasi-private"" doesn't usually have this meaning."
2009-07-24T01:28:04+00:00,303851892,303537392,0,DumbBOT,Federal Reserve,removing a protection template from a non-protected page ([[User:DumbBOT/Protection|info]])
2007-12-18T05:37:46+00:00,178665611,178654490,0,Minnesota1,Federal Reserve,svg convert
2009-05-14T07:23:07+00:00,289834280,289834080,0,24.17.110.94,Federal Reserve,rv incorrect usage
2009-12-04T04:54:15+00:00,329610876,329610341,0,Scray,Federal Reserve,[[WP:UNDO|Undid]] revision 329610341 by [[Special:Contributions/70.176.17.88|70.176.17.88]] ([[User talk:70.176.17.88|talk]]) Comment out of place
2009-09-08T09:51:00+00:00,312561333,312481721,0,203.116.22.138,Federal Reserve,/* Federal Reserve Act */
2009-03-07T17:16:41+00:00,275628593,275418643,0,75.47.250.73,Federal Reserve,/* Creation of a third central bank */
2009-01-18T00:00:17+00:00,264768496,264767759,0,85.224.102.53,Federal Reserve,
2009-12-16T19:26:21+00:00,332099869,331952011,0,170.170.59.138,Federal Reserve,edit
2007-06-28T16:42:03+00:00,141199589,141052706,0,Grabowc,Federal Reserve,edited awkward wording of sentence about Fed raising interest rates 17 straight times
2007-12-25T00:54:26+00:00,180042946,180014275,0,Dotter,Federal Reserve,/* Outright Transactions */  The Treasury is not a primary dealer.
2007-08-28T03:46:20+00:00,154096854,154096169,0,Sense22,Federal Reserve,[[WP:UNDO|Undid]] revision 154088556 by [[Special:Contributions/Sense22|Sense22]] ([[User talk:Sense22|talk]]) Footnotes got messed up must undo.
2008-05-29T09:47:52+00:00,215702338,215605604,0,Buddha24,Federal Reserve,/* The Federal Reserve Act */ shrink image
2008-11-15T01:28:45+00:00,251882912,251882759,0,MBK004,Federal Reserve,Reverted edits by [[Special:Contributions/24.14.192.74|24.14.192.74]] ([[User talk:24.14.192.74|talk]]) to last version by 69.116.251.98
2008-12-19T23:45:22+00:00,259065195,259064974,0,207.155.244.69,Federal Reserve,/* Creation of a third central bank */ Federal Reserve -> Federal Reserve System
2009-09-17T12:42:19+00:00,314519752,314514722,0,141.123.123.100,Federal Reserve,Remove nonsense
2007-07-10T22:48:13+00:00,143841891,143767930,0,Bezbozhnik,Federal Reserve,/* Historical criticisms */ Random Ron Paul noise removed
2008-02-07T04:30:18+00:00,189667767,189425726,0,Baked ham,Federal Reserve,/* Conspiracy theories */  dead link - article just deleted as not notable / unverifiable
2007-08-10T13:47:39+00:00,150392889,150354659,0,MoogleDan,Federal Reserve,"/* History */  Minor Cleanup, Regularized Spacing"
2007-05-13T00:12:50+00:00,130431139,130312027,0,71.103.230.249,Federal Reserve,/* History */
2010-02-09T01:27:18+00:00,342826428,342746263,0,71.236.230.163,Federal Reserve,/* President */
2007-11-07T08:56:51+00:00,169825324,169825244,0,69.115.230.118,Federal Reserve,/* History */
2009-10-20T03:47:32+00:00,320940884,320669759,0,65.32.225.51,Federal Reserve,/* Federal Reserve Act */
2006-07-08T21:03:25+00:00,62775246,62774762,0,Cappiels,Federal Reserve,/* History */
2008-06-03T06:15:17+00:00,216790299,216790067,0,Vianello,Federal Reserve,Reverted 2 edits by [[Special:Contributions/61.11.52.134|61.11.52.134]]; Please justify large content removals in edit summaries. ([[WP:TW|TW]])
2007-08-02T01:31:08+00:00,148621635,148536503,0,Zombiejesus,Federal Reserve,/* Outright Transactions */ linked phrase
2008-03-28T14:38:58+00:00,201582658,201571826,0,Solian en,Federal Reserve,/* Independent within government */ US government link
2008-06-28T20:48:19+00:00,222341857,221954069,0,Betterusername,Free market,
2007-04-22T22:35:33+00:00,124981592,124981478,0,Enviroboy,Free market,Reverted 1 edit by [[Special:Contributions/70.106.136.227|70.106.136.227]] identified as [[WP:VAND|vandalism]] to last revision by [[User:193.95.165.190|193.95.165.190]]. using [[WP:TWINKLE|TW]]
2006-12-09T17:45:42+00:00,93179699,92967149,0,71.201.159.182,Free market,"/* ""Privatized tyranny"" */"
2009-02-26T18:16:36+00:00,273465054,273097993,0,41.190.243.10,Free market,
2007-10-09T12:55:05+00:00,163315603,163314070,0,SecretaryNotSure,Free market,"fixing extra word, grammar"
2009-03-21T05:44:29+00:00,278684724,278684698,0,Kyle1278,Free market,Reverted edits by [[Special:Contributions/96.225.239.164|96.225.239.164]] to last revision by Until It Sleeps ([[WP:HG|HG]])
2008-11-24T15:02:57+00:00,253796905,253661775,0,98.114.34.126,Free market,"/* Starbuck's as example of market forces in economics */ gr - ""starbuck's"" →""starbucks"""
2007-01-11T08:07:55+00:00,99951546,99867821,0,172.166.134.175,Free market,/* See also */
2008-09-25T15:18:30+00:00,240914968,240914933,0,Closedmouth,Free market,Reverted edits by [[Special:Contributions/76.226.12.240|76.226.12.240]] to last version by Karbinski ([[WP:HG|HG]])
2007-06-01T20:07:16+00:00,135164772,135164421,0,65.102.229.79,Free market,Clarifying that free markets are absent of government and private influences
2009-07-24T11:18:10+00:00,303915242,303907781,0,Bogglevit,Free market,"Wikify, links"
2008-11-06T14:11:13+00:00,250031078,250025861,0,202.7.183.131,Free market,
2007-09-25T18:03:20+00:00,160293843,159958881,0,212.243.7.194,Gold standard,"Deleted unnecessary preposition ""by"" and made minor stylistic changes to improve readability."
2006-05-25T23:06:54+00:00,55156204,54971364,0,Searchme,Gold standard,rev
2007-04-30T17:38:35+00:00,127187177,126355188,0,Newbyguesses,Gold standard,/* See also */ add a link
2008-04-28T07:56:22+00:00,208709645,208097978,0,Aesopos,Gold standard,
2007-10-26T17:57:14+00:00,167258992,167257376,0,Michaelbusch,Gold standard,rvv
2008-10-21T17:15:05+00:00,246757097,246757045,0,151.193.220.29,Gold standard,
2006-12-25T08:56:33+00:00,96394388,96394273,0,81.158.26.46,Gold standard,/* The London conference */
2008-04-18T17:36:53+00:00,206530257,206529948,0,Plazak,Gold standard,rvv to version by Epbr123
2010-01-05T20:15:22+00:00,336060485,336060430,0,Flowerpotman,Gold standard,[[Help:Reverting|Reverted]] edits by [[Special:Contributions/137.90.226.107|137.90.226.107]] ([[User talk:137.90.226.107|talk]]) to last version by 206.63.149.16
2006-11-19T07:32:56+00:00,88768302,88640107,0,Filksinger,Gold standard,
2009-07-17T19:10:26+00:00,302647365,301575618,0,Nealcardwell,Gold standard,
2008-05-23T17:37:15+00:00,214460065,213458109,0,24.96.236.66,Gold standard,corrected mispelled word
2007-02-23T05:58:38+00:00,110262244,110262159,0,Michaelbusch,Gold standard,"rv. provide to-do list first, please."
2008-08-10T13:11:44+00:00,231012233,230798806,0,88.96.19.110,Gold standard,/* Differing definitions of gold standard */
2009-09-30T16:23:06+00:00,317110540,317110432,0,Packermanice,Gold standard,
2007-10-29T20:56:04+00:00,167925644,167875677,0,Goodnightmush,Gold standard,/* Advocates and opponents of a renewed gold standard */ cleanup the grammar of the ron paul promotion
2008-09-22T03:06:55+00:00,240147993,239962668,0,96.234.164.51,Gold standard,Worldwide view claim is BS.
2007-10-22T16:25:41+00:00,166308316,166307848,0,Benf101,Gold standard,added blockquote tags
2008-01-20T07:25:22+00:00,185602186,185141981,0,203.194.48.95,Gold standard,There's more to the backing of fiat money than simple faith (plus grammar fixes) - P.M.Lawrence
2008-10-31T19:37:08+00:00,248872407,248867371,0,18.53.6.165,Gold standard,/* Advocates of a renewed gold standard (Ron Paul) */
2007-09-14T17:55:58+00:00,157890216,157716933,0,129.97.32.45,Gold standard,/* Abandoning the standard to fund the war */
2008-11-14T11:57:10+00:00,251751459,251751149,0,Chris Capoccia,Gold standard,{{dead link}}
2007-12-07T14:46:50+00:00,176369651,176253450,0,62.1.106.63,Gold standard,/* Early coinage */
2007-02-14T19:02:44+00:00,108134366,108054394,0,144.254.153.96,Gold standard,
2008-06-19T00:55:23+00:00,220263128,219451941,0,154.5.33.217,High-frequency Active Auroral Research Program,
2008-07-19T02:35:18+00:00,226562966,226044618,0,69.123.66.156,Gold standard,/* Disadvantages and Rebuttals */
2008-05-28T12:48:56+00:00,215489921,215347933,0,67.204.9.136,High-frequency Active Auroral Research Program,"/* Russian Parliament */  typo, paralled corrected to paralleled"
2007-01-13T04:45:17+00:00,100381486,97378192,0,O. bey,High-frequency Active Auroral Research Program,Toning down unreferenced claim
2009-07-30T21:14:13+00:00,305152404,304135001,0,136.182.2.26,High-frequency Active Auroral Research Program,/* The HAARP site */
2008-01-05T04:31:05+00:00,182249344,182237815,0,TJRC,High-frequency Active Auroral Research Program,[[WP:UNDO|Undid]] revision 182237815 by [[Special:Contributions/Slpeterson|Slpeterson]] ([[User talk:Slpeterson|talk]])
2006-11-05T10:41:49+00:00,85828436,82225707,0,Kalogeropoulos,High-frequency Active Auroral Research Program,interwiki
2009-10-02T19:08:32+00:00,317514964,317514534,0,Jivecat,High-frequency Active Auroral Research Program,Reverted 1 edit by [[Special:Contributions/71.86.25.131|71.86.25.131]] identified as [[WP:VAND|vandalism]] to last revision by [[User:Headbomb|Headbomb]]. using [[WP:TWINKLE|TW]]
2008-10-28T23:02:13+00:00,248295333,248247436,0,68.206.116.14,Individualism,/* Etymology */
2007-11-17T18:20:02+00:00,172120887,166419268,0,212.234.218.194,Individualism,[[eo:Individuismo]]
2008-12-10T17:00:03+00:00,257082115,257079963,0,Gsp8181,Individualism,Reverted edits by [[Special:Contributions/216.64.230.24|216.64.230.24]] to last version by 199.184.238.197 ([[WP:HG|HG]])
2007-03-27T19:41:09+00:00,118333913,118333148,0,83.208.160.48,Individualism,/* Further reading */
2008-05-28T19:27:12+00:00,215563433,215563182,0,Ronaz,Individualism,Reverted edits by [[Special:Contributions/87.65.106.188|87.65.106.188]] to last version by 130.208.204.5
2007-10-23T01:16:54+00:00,166419268,166401857,0,WikipedianMarlith,Individualism,Revert to revision 165572290 dated 2007-10-19 05:27:44 by 76.114.113.107 using [[:en:Wikipedia:Tools/Navigation_popups|popups]]
2006-08-19T15:53:32+00:00,70600889,69977825,0,87.228.223.56,Individualism,/* Opposing views */
2008-04-26T17:55:41+00:00,208359316,208335276,0,Tedeh,Individualism,[[WP:UNDO|Undid]] revision 208335276 by [[Special:Contributions/74.248.19.163|74.248.19.163]] ([[User talk:74.248.19.163|talk]])
2008-05-18T01:09:31+00:00,213154429,213079128,0,WikipedianMarlith,Individualism,Reverted edits by [[Special:Contributions/72.198.201.9|72.198.201.9]] ([[User talk:72.198.201.9|talk]]) to last version by 210.212.158.131
2009-03-04T08:38:15+00:00,274879353,273938120,0,75.17.58.144,Individualism,/* Individualism and US history */
2006-06-23T23:33:07+00:00,60254418,60253171,0,Mwanner,Individualism,/* External links */ trim comm links
2008-10-12T03:37:35+00:00,244705471,244028413,0,CohesionBot,Individualism,Repairing link to disambiguation page : Unitarian
2007-12-06T14:10:50+00:00,176149369,176128180,0,132.185.144.122,Individualism,[[WP:UNDO|Undid]] revision 176128180 by [[Special:Contributions/212.219.74.27|212.219.74.27]] ([[User talk:212.219.74.27|talk]])
2009-07-01T06:19:39+00:00,299645103,296340916,0,189.27.242.3,Individualist anarchism,/* The American traditions */ sovereignity
2007-05-13T14:53:59+00:00,130546759,129296926,0,Itafroma,Individualist anarchism,/* Egoist individualist anarchism */
2009-01-03T13:06:32+00:00,261667755,261023505,0,79.76.236.14,Individualist anarchism,
2006-11-01T00:56:17+00:00,84947690,84777261,0,MonicaTTmed,Individualist anarchism,/* See also */
2009-06-14T12:16:39+00:00,296340916,296340848,0,92.23.214.162,Individualist anarchism,/* Egoism */
2006-07-16T21:27:40+00:00,64175181,64174861,0,Blahblahblahblahblahblah,Individualist anarchism,"This source demonstrates on individualist viewpoint, it does not follow that the whole philosophy has this ""strong emphasis"", we need a better source"
2007-02-06T14:08:57+00:00,106049984,105722621,0,Elodoth,Individualist anarchism,/* The American Traditions */ correction
2009-04-02T20:00:16+00:00,281353935,281345509,0,69.3.28.178,Individualist anarchism,
2009-08-29T15:07:29+00:00,310722576,309007321,0,12.175.179.131,Individualist anarchism,
2006-06-12T19:50:34+00:00,58258085,57228870,0,Marudubshinki,Individualist anarchism,Robot: Automated text replacement  (- the the  + the )
2009-06-10T22:59:11+00:00,295673870,295650334,0,98.231.22.244,Individualist anarchism,"Added Stefan Molyneux the writer of works such as ""Universally Preferable Behavior: A Rational Proof Of Secular Ethics"", ""Everyday Anarchy"", and webhost of freedomainradio.com"
2006-04-27T07:38:07+00:00,50389537,50360289,0,BlackFlag,Individualist anarchism,"Removing fact tag as well known fact, as repeated by Rothbard in quoted essay."
2008-01-20T05:53:33+00:00,185591908,182198995,0,Graeme Bartlett,Individualist anarchism,link Irving Louis Horowitz
2006-07-26T18:45:11+00:00,66007921,65993592,0,MECU,Individualist anarchism,changing {{main articles}} to {{main}} per [[Wikipedia:Templates_for_deletion#To_orphan|TfD to Orphan]] using AWB  using [[WP:AWB|AWB]]
2009-09-21T09:31:34+00:00,315262889,315199284,0,65.66.149.147,Individualist anarchism,/* The American traditions */
2006-05-12T06:14:09+00:00,52795141,50389537,0,Cydebot,Individualist anarchism,Robot - Bypassing citation needed redirect.
2009-07-12T17:17:47+00:00,301719487,301719380,0,Dominik92,Individualist anarchism,Reverted 1 edit by [[Special:Contributions/71.109.216.42|71.109.216.42]]; NPOV. ([[WP:TW|TW]])
2006-07-20T05:18:44+00:00,64797807,64795623,0,Kross,Individualist anarchism,
2008-03-27T12:30:34+00:00,201307070,200592540,0,Koroesu,Individualist anarchism,
2006-07-24T20:58:26+00:00,65626597,65525819,0,MECU,Individualist anarchism,changed {{main articles}} to {{main}} per [[Wikipedia:Templates_for_deletion#To_orphan|TfD To Orphan]]
2007-09-07T03:46:00+00:00,156200511,156200302,0,George415,Karl Hess,
2006-06-10T04:55:22+00:00,57827694,57673610,0,Antaeus Feldspar,L. Ron Hubbard,"corrected reference to coroner's ""autopsy"" revealing the Vistaril; see talk page"
2007-03-11T16:59:10+00:00,114329680,113185897,0,N1h1l,Karl Hess,rmvd redundant cat (american anarchist is subcat of anarchist)
2009-10-16T19:33:55+00:00,320269753,320213341,0,Big Cowboy Kev,L. Ron Hubbard,/* Early writings and Dianetics */ fixed formatting of quotation over image by using <blockquote> - now image can be seen clearly
2007-12-24T02:25:49+00:00,179885821,131716720,0,Danny lost,Labor theory of property,wkf
2009-10-15T16:35:01+00:00,320040151,314643895,0,Spitzl,Labor theory of property,interwiki link
2008-10-12T18:51:48+00:00,244822282,243480947,0,SDC,Labor theory of value,
2006-08-05T19:16:27+00:00,67867281,65011924,0,71.162.255.58,Labor theory of property,
2009-09-12T19:44:08+00:00,313424590,312301054,0,71.241.218.107,Labor theory of value,clarification
2009-05-17T19:00:13+00:00,290560264,284787694,0,Goddun,Labor theory of value,
2009-11-23T23:30:24+00:00,327562882,327562366,0,212.76.250.4,Labor theory of value,
2008-03-11T18:33:57+00:00,197527955,195385153,0,IamNotU,Labor theory of value,fixed typo
2006-06-08T23:14:38+00:00,57609930,56430127,0,216.103.211.27,Labor theory of value,"/* Marx's theory */ Corrected spelling of ""distinction"""
2007-10-17T23:08:12+00:00,165290050,164229803,0,Ledpup,Labor theory of value,"/* The inapplicability of the LTV */ Uncultivated land needs to be explained in relation to how it may have a price without value, not how it has a value without labour."
2007-03-21T04:30:40+00:00,116708562,115067288,0,68.111.115.134,Labor theory of value,
2008-12-13T22:13:26+00:00,257777559,256446229,0,70.108.71.240,Labor theory of value,/* The relation between values and prices */
2009-06-19T21:12:00+00:00,297430444,295619471,0,174.18.56.16,Labor theory of value,/* Microeconomic Theory */  Simplified a sentence on neoclassical/marxist divide
2007-02-18T13:36:35+00:00,109065663,107641055,0,163.1.188.94,Labor theory of value,/* References */
2007-11-15T07:09:53+00:00,171616785,168775721,0,190.3.134.234,Labor theory of value,
2006-05-22T22:55:17+00:00,54608810,54600113,0,Cadr,Labor theory of value,/* Böhm-Bawerk’s critique */ Incorporate anon edits in a more npov manner
2008-06-11T22:33:02+00:00,218731512,218731043,0,216.201.228.162,Labor theory of value,/* Böhm-Bawerk’s criticism */
2009-05-30T01:18:37+00:00,293213002,290560264,0,192.211.30.51,Labor theory of value,/* Microeconomic Theory */
2006-12-16T05:20:40+00:00,94653791,93780511,0,Inquam,Labor theory of value,/* The relation between values and prices */  punctuation
2009-06-08T18:25:08+00:00,295215352,295215008,0,Alexkin,Liberalism,Reverted edits by [[Special:Contributions/74.46.29.81|74.46.29.81]] to last version by Rick Norwood
2008-01-24T10:48:05+00:00,186565464,185947653,0,NZUlysses,Liberalism,
2008-03-03T00:15:40+00:00,195440641,194923154,0,Cessator,Liberalism,
2009-02-04T06:14:59+00:00,268422218,268421494,0,What are you on about?,Liberalism,
2009-02-02T22:13:11+00:00,268121103,268116688,0,Lofty abyss,Liberalism,Reverted edits by [[Special:Contributions/204.17.31.126|204.17.31.126]] ([[User talk:204.17.31.126|talk]]) to last version by Eugene Pivovarov
2008-11-07T22:00:12+00:00,250320457,250320402,0,IRP,Liberalism,Reverted edits by [[Special:Contributions/72.147.180.17|72.147.180.17]] to last version by Cretog8 ([[WP:HG|HG]])
2009-01-29T22:16:44+00:00,267279601,267247279,0,Dawn Bard,Liberalism,Reverted edits by [[Special:Contributions/209.174.193.18|209.174.193.18]] ([[User talk:209.174.193.18|talk]]) to last version by 202.93.216.130
2007-07-24T19:59:50+00:00,146831679,146229246,0,Miliberty,Libertarianism,
2009-10-06T22:15:06+00:00,318334445,318334206,0,83.87.87.103,Libertarianism,/* Europe */
2008-06-30T20:34:21+00:00,222727560,222527959,0,71.185.237.45,Libertarianism,/* Natural rights and consequentialism */
2007-06-03T18:39:17+00:00,135602832,135602399,0,MastCell,Libertarianism,add small semi-protection template
2008-10-30T01:16:33+00:00,248528894,248403504,0,AlexWangombe,Libertarianism,fixed link
2009-10-09T20:27:14+00:00,318933721,318933613,0,68.198.133.244,Libertarianism,/* External links */
2007-12-28T03:19:00+00:00,180543846,180261687,0,70.51.21.34,Libertarianism,
2008-04-17T21:46:50+00:00,206343353,206342683,0,Correogsk,Libertarianism,
2007-08-20T23:40:06+00:00,152577562,152460771,0,Argon233,Libertarianism,/* Criticism of libertarianism */ disambig [[Medicare]] to [[Medicare (United States)]]
2009-04-30T10:58:13+00:00,287030293,287030180,0,217.33.111.66,Limited government,
2006-10-12T21:32:23+00:00,81088433,81026944,0,209.87.231.114,Limited government,Rv vandalism by 66.203.19.30
2009-12-05T00:43:25+00:00,329777228,329511864,0,78.16.187.129,Limited government,
2007-04-03T20:28:14+00:00,120059443,120058962,0,Madman,Limited government,rvv
2009-07-04T18:30:17+00:00,300270791,298205971,0,Doodlecant,Limited government,
2007-03-08T22:47:11+00:00,113688094,113278699,0,VolatileChemical,Limited government,
2006-11-16T21:59:37+00:00,88290664,87817315,0,199.227.112.6,Limited government,/* Limited government in the United States */
2007-05-19T00:19:41+00:00,131900562,129886891,0,Steven J. Anderson,Limited government,Repairing link to disambiguation page - [[Wikipedia:Disambiguation pages with links|You can help!]]
2006-04-12T21:13:27+00:00,48174046,40647054,0,67.20.233.80,Limited government,/* Limited government in the United States */
2009-05-27T00:34:07+00:00,292562742,287030293,0,96.255.34.125,Limited government,
2007-01-04T14:57:48+00:00,98419747,98419556,0,Oliver202,Limited government,RV
2008-03-18T17:17:52+00:00,199123675,199011026,0,Lmbstl,Limited government,[[WP:UNDO|Undid]] revision 199011026 by [[Special:Contributions/75.141.209.245|75.141.209.245]] ([[User talk:75.141.209.245|talk]])
2008-02-06T00:54:39+00:00,189393096,189384745,0,71.212.165.251,Limited government,
2007-10-23T04:46:06+00:00,166449148,166432759,0,138.89.118.200,Limited government,/* Checks and balances */
2008-01-04T21:57:41+00:00,182184994,179422601,0,Snowolf,Lyndon LaRouche,fixing typo
2006-11-27T02:37:48+00:00,90351871,90280408,0,208.222.71.17,Lyndon LaRouche,
2007-02-26T18:06:40+00:00,111118740,109328725,0,Paweł ze Szczecina,Market economy,[[pl:Gospodarka rynkowa]]
2006-05-06T04:37:08+00:00,51788629,51788414,0,Daniel5127,Market economy,Reverted deits by [[User:64.131.180.112|64.131.180.112]] to last version by [[User:Nema Fakei|Nema Fakei]].
2009-08-13T15:54:00+00:00,307763229,307756657,0,75.71.42.212,Milton Friedman,"Someone vandalised the article by adding ""and damn sexy"" in the first sentence."
2008-10-26T04:40:26+00:00,247713191,247672531,0,Plasticup,Milton Friedman,"fixing the ""date="" fields to allow wiki-magic  using [[Project:AutoWikiBrowser|AWB]]"
2006-08-07T13:06:01+00:00,68184158,68183891,0,67.86.104.59,Milton Friedman,/* About Friedman */
2009-04-11T03:03:35+00:00,283105897,283105689,0,Stevenmitchell,Milton Friedman,fixed internal reference
2009-12-15T00:49:41+00:00,331717454,331662230,0,192.25.142.225,Milton Friedman,
2008-07-12T10:45:16+00:00,225189440,225168712,0,Neptun88,Milton Friedman,
2009-06-04T01:02:18+00:00,294290258,294284346,0,Strikehold,Milton Friedman,
2008-09-05T17:22:53+00:00,236484438,236206927,0,Enlightenmentreloaded,Milton Friedman,fixed a link
2009-06-08T19:59:57+00:00,295233411,295232784,0,74.218.161.17,Milton Friedman,/* External links */
2008-02-07T23:43:28+00:00,189841858,189652701,0,Doopdoop,Milton Friedman,no citation for Cowen as a libertarian. Chile already described below
2006-10-19T21:41:50+00:00,82503594,82475052,0,72.177.113.177,Milton Friedman,/* Biography */
2007-02-20T02:00:57+00:00,109452206,109404927,0,Thomasmeeks,Milton Friedman,/* Scholarly contributions */ more proximate [[Essays in Positive Economics#The Methodology of Positive Economics|The Methodology of Positive Economics]] link
2010-01-15T22:13:55+00:00,338075290,337988685,0,Jrtayloriv,Milton Friedman,[[WP:UNDO|Undid]] revision 337988685 by [[Special:Contributions/115.70.142.221|115.70.142.221]] ([[User talk:115.70.142.221|talk]]) -- actually bestselling books by internationally renowned economists/journalists ARE considered notable
2007-06-21T00:57:28+00:00,139552633,139551122,0,Jayjg,Milton Friedman,"well, for one thing it's a super-category of both Jewish American scientists and Jewish American writers, both of which is he already in."
2008-12-19T07:05:48+00:00,258936914,258936482,0,Sirsticks1,Modern liberalism in the United States,/* Major influences on modern liberalism in the United States */
2009-06-16T21:33:32+00:00,296835674,296213477,0,Mm40,Modern liberalism in the United States,"clean up, typos fixed: neccessitates → necessitates, be be → be using [[Project:AutoWikiBrowser|AWB]]"
2009-02-28T08:35:59+00:00,273836458,272983049,0,Vanished user 82345ijgeke4tg,Modern liberalism in the United States,"/* Possibility of a new consensus? */ rm ""?"""
2009-08-04T20:52:49+00:00,306080852,303871950,0,AmateurEditor,Modern liberalism in the United States,"/* American versus European use of the term ""liberalism"" */ Because ""conservative"" is a relative word, its use here is confusing. I replaced it with ""Laissez faire""."
2007-09-20T16:48:08+00:00,159196473,159196349,0,Cp111,Monopoly,[[WP:UNDO|Undid]] revision 159196349 by [[Special:Contributions/75.67.207.144|75.67.207.144]] ([[User talk:75.67.207.144|talk]])
2006-06-27T14:45:58+00:00,60844217,60840778,0,Daniel Case,Monopoly,/* External links */ rm spam
2009-04-16T21:20:32+00:00,284287676,284287664,0,The Thing That Should Not Be,Monopoly,Reverted edits by [[Special:Contributions/205.124.113.192|205.124.113.192]] to last revision by Catgut ([[WP:HG|HG]])
2007-01-03T05:04:44+00:00,98110088,98109954,0,CorbieVreccan,Monopoly,Reverted 1 edit by [[Special:Contributions/68.5.71.251|68.5.71.251]] ([[User talk:68.5.71.251|talk]]) to last revision (97905401) by Ipso2 using [[WP:VPRF|VP]]
2006-05-20T03:47:14+00:00,54138876,54037015,0,Off!,Monopoly,Reverted edits by [[Special:Contributions/86.136.171.105|86.136.171.105]] ([[User talk:86.136.171.105|talk]]) to last version by Atlant
2007-01-27T17:35:25+00:00,103638354,103638292,0,67.51.39.65,Monopoly,/* Primary characteristics of a monopoly */
2006-06-07T19:28:56+00:00,57402380,57402275,0,Steel,Monopoly,Revert to revision 56971184 using [[:en:Wikipedia:Tools/Navigation_popups|popups]]
2009-12-20T20:26:08+00:00,332908771,331569133,0,Ettrig,Mutualism (economic theory),/* External links */
2007-03-27T16:48:30+00:00,118294356,118294323,0,Leafyplant,Monopoly,Reverted 1 edit by [[Special:Contributions/216.184.95.12|216.184.95.12]] identified as [[WP:VAND|vandalism]] to last revision by [[User:Cdernings|Cdernings]]. using [[WP:TWINKLE|TW]]
2009-02-14T09:43:45+00:00,270633511,268964521,0,78.86.130.100,Monopoly,/* Economic analysis */ fix spelling error
2007-05-13T06:50:10+00:00,130490401,129034456,0,200.125.199.60,Mutualism (economic theory),/* See also */
2009-10-19T17:44:50+00:00,320833619,320820886,0,RJC,Natural rights and legal rights,Reverted [[WP:AGF|good faith]] edits by [[Special:Contributions/59.94.43.252|59.94.43.252]]; Locke says that these three rights make up property; he speaks of estate. ([[WP:TW|TW]])
2007-12-28T06:14:10+00:00,180564774,180564740,0,FarmBoi,Natural rights and legal rights,/* First proponent */ Thomas Hobbes
2008-05-15T01:58:35+00:00,212505745,212505702,0,IndulgentReader,Natural rights and legal rights,[[WP:UNDO|Undid]] revision 212505702 by [[Special:Contributions/69.121.135.241|69.121.135.241]] ([[User talk:69.121.135.241|talk]])
2009-04-09T17:18:48+00:00,282803756,279807782,0,76.10.131.181,Mutualism (economic theory),/* Mutualist economics */
2007-03-01T06:44:48+00:00,111775110,111724724,0,Elipongo,New York Stock Exchange,/* Events */ Replace with {{fact}}
2006-09-27T08:39:53+00:00,78067219,77977843,0,Tree Biting Conspiracy,New York Stock Exchange,+simple
2006-12-19T14:45:02+00:00,95311236,95311203,0,Aude,New York Stock Exchange,Reverted edits by [[Special:Contributions/209.80.133.101|209.80.133.101]] ([[User talk:209.80.133.101|talk]]) to last version by Mark06
2006-11-10T21:59:37+00:00,87021737,87021609,0,Husond,New York Stock Exchange,Reverted 1 edits by [[Special:Contributions/209.42.179.117|209.42.179.117]] ([[User talk:209.42.179.117|talk]]) to last revision (86724335) by 204.10.42.10 using [[WP:VP2|VP2]]
2009-10-05T10:17:44+00:00,318016507,318016319,0,217.206.231.128,Objectivism,
2007-07-12T20:13:03+00:00,144251447,144200801,0,130.39.162.221,Objectivism,/* Monographs */
2006-08-05T08:35:56+00:00,67792729,67554365,0,Ipso-De-Facto,Objectivism,/* Metaphysics: Objective reality */
2007-03-18T06:44:28+00:00,115966262,115966151,0,Michaelpremsrirat,Objectivism,/* Metaphysics: objective reality */ removed errant comma
2008-02-16T07:44:09+00:00,191812844,191812249,0,41.242.25.65,Objectivism,/* Aesthetics: Romantic realism */
2008-11-03T16:58:02+00:00,249434121,249431934,0,Twas Now,Objectivism,replacing <blockquote> with a colon ; replacing mdash with — and ndash with – ; testing to see if every little inconsequential edit requires consensus on the talk page first ;
2009-08-15T17:20:27+00:00,308151684,308151630,0,Wejer,Objectivism,/* Epistemology: reason */
2006-05-12T05:09:59+00:00,52789287,52789250,0,128.206.228.254,Objectivism,
2009-04-22T02:22:13+00:00,285369289,285368017,0,204.69.190.75,Objectivism,/* Metaphysics: objective reality */
2007-01-12T21:03:03+00:00,100298580,99662236,0,David Gerard,Objectivism,/* Academic philosophy */ grammar tweaks
2007-12-13T00:53:26+00:00,177555877,173671617,0,Ddxc,Objectivism,/* Ethics: Rational self-interest */ link
2008-05-18T19:53:27+00:00,213310650,213046796,0,GreedyCapitalist,Objectivism,/* External links */
2009-07-18T17:33:40+00:00,302801605,302796477,0,Wilanthule,Objectivism,/* Criticisms */
2007-08-21T15:34:46+00:00,152706912,152464844,0,67.127.84.129,Objectivism,"""pre-empted"" is somewhat prejudicial"
2008-05-17T14:49:03+00:00,213046796,213046146,0,Mwickens,Objectivism,Remove incorrect/OR material
2009-11-20T12:40:58+00:00,326918830,326582306,0,98.218.241.48,Objectivism,
2007-05-12T01:49:33+00:00,130233898,130233769,0,66.254.249.25,Objectivism,/* External links */
2009-05-31T23:21:12+00:00,293607502,293592862,0,Cazort,Objectivism,/* Criticisms */ removed unsourced assertion (add back if you can find a good source!)
2008-12-03T04:52:14+00:00,255576698,255576335,0,Auzigog,Objectivism,/* Politics: Individual rights and capitalism */ fixing another poorly formatted reference
2008-05-24T02:43:40+00:00,214555341,214127751,0,Heyitspeter,Objectivism,"/* Cultural impact */ May as well speak for everyone, eh?"
2008-09-08T02:54:17+00:00,236992094,236992028,0,Rename user vk7wbxku6o2fxupa,Objectivism,"/* Intellectual impact */ Oops, link fix"
2006-12-11T02:13:23+00:00,93497645,93493175,0,Enkrates,Objectivism,"Reverted edits by [[Special:Contributions/70.111.218.254|70.111.218.254]] ([[User talk:70.111.218.254|Talk]]) to last version by [[User:70.111.218.254|70.111.218.254]] to remove this ""L."" nonsense"
2008-10-02T18:32:00+00:00,242552170,242551877,0,90.230.16.245,Objectivism,/* Ethics: Rational self-interest */
2008-08-08T14:23:48+00:00,230616709,230547673,0,Telos,Objectivism,/* Epistemology: Reason */ disambiguate link
2008-09-05T20:48:41+00:00,236521046,235742079,0,84.227.145.126,Objectivism,/* Etymology */
2009-08-24T07:27:40+00:00,309740543,309609526,0,Marcus Brute,Objectivism,
2009-05-15T23:09:40+00:00,290192398,290100676,0,74.177.228.88,Objectivism,/* Ethics: rational self-interest */  several mispellings
2008-04-04T13:11:42+00:00,203279741,201857706,0,JukoFF,Objectivism,
2009-04-08T06:01:27+00:00,282501730,282501371,0,72.199.110.160,Objectivism,/* Aesthetics: metaphysical value-judgements */ why volition is essential to drama according to Rand
2009-05-02T17:34:10+00:00,287480778,287476346,0,Peter Damian,Objectivism,/* Ethics: rational self-interest */
2008-12-13T17:03:09+00:00,257718741,256752263,0,Pie4all88,Objectivism,/* Politics: Individual rights and capitalism */  Added a comma.
2009-07-04T19:34:41+00:00,300281038,300143711,0,NeutronTaste,Objectivism,
2006-08-28T00:47:41+00:00,72291461,72135258,0,217.116.110.189,Objectivism,polish
2009-05-09T00:42:41+00:00,288778843,288761357,0,EdJohnston,Objectivism,Add semi-protection template
2006-07-15T06:35:52+00:00,63918219,63913290,0,Mboverload,Objectivism,Fixing
2009-05-06T18:59:07+00:00,288320374,288320260,0,Peter Damian,Objectivism,/* Ethics: rational self-interest */  no need for link (redirect)
2006-05-06T02:42:00+00:00,51777485,51745737,0,Alienus,Objectivism,/* Criticism of Objectivism */ rm uncited apologetics to Talk
2006-05-26T22:52:20+00:00,55332738,55320074,0,Enkrates,Objectivism,Atheism is not Objectivism. This link doesn't belong on this list.
2008-05-19T16:17:36+00:00,213492451,213310650,0,LemmeyBOT,Objectivism,Restored missing content of named reference using article history
2007-11-04T13:45:04+00:00,169151063,168405352,0,NickGarvey,Objectivist metaphysics,
2007-08-14T23:05:06+00:00,151273073,146149862,0,Eaefremov,Objectivist metaphysics,Repairing link to disambiguation page - [[Wikipedia:Disambiguation pages with links|You can help!]]
2006-10-23T19:51:42+00:00,83267875,83264776,0,Cydebot,Objectivist movement,Robot - Removing category Alleged cults per [[WP:CFD|CFD]] at [[Wikipedia:Categories for deletion/Log/2006 October 15]].
2007-09-27T00:24:21+00:00,160590480,151104596,0,GreedyCapitalist,Objectivist movement,/* External links */
2006-05-29T17:05:19+00:00,55762340,55761940,0,Karada,Paradox of value,/* Subjective theory of Value */ Value -> value
2006-04-24T12:41:57+00:00,49911593,49909167,0,Flammifer,Objectivist metaphysics,"/* See also */ -""objectivism"" in see also - it's just a disambig page"
2010-01-23T19:44:53+00:00,339583748,337901405,0,Forich,Paradox of value,"complied with Wikipedia's manual of style, on section headings"
2009-02-19T04:56:13+00:00,271751896,271751511,0,Julia Rossi,Paradox of value,/* Marginalism */ typo:log but-->log hut
2010-01-15T00:05:48+00:00,337901405,337062554,0,Forich,Paradox of value,expandend the sentence prior to Smith's quote
2007-07-07T05:57:06+00:00,143047755,136948868,0,190.56.36.27,Paradox of value,/* Objectivist Opinion */
2006-12-01T21:03:46+00:00,91454975,91454866,0,67.164.87.47,Paradox of value,
2008-05-20T05:48:50+00:00,213643836,208939767,0,137.163.16.143,Paradox of value,/* Labor theory of value */
2007-02-16T13:34:35+00:00,108597602,108533390,0,Andres,Planned economy,et:
2009-10-08T23:24:42+00:00,318757341,318757327,0,Atif.t2,Planned economy,Reverted edits by [[Special:Contributions/71.111.212.80|71.111.212.80]] to last revision by 76.103.222.244 ([[WP:HG|HG]])
2009-03-05T02:13:08+00:00,275074204,275073334,0,Lofty abyss,Planned economy,Reverted edits by [[Special:Contributions/38.116.200.67|38.116.200.67]] to last revision by 75.165.24.227 ([[WP:HG|HG]])
2007-05-25T14:21:59+00:00,133421277,133232957,0,Geniac,Planned economy,Reverted edits by [[Special:Contributions/199.216.80.1|199.216.80.1]] ([[User talk:199.216.80.1|talk]]) to last version by 82.10.203.229
2006-06-28T03:37:58+00:00,60958127,48890279,0,Hibernian,Price system,Major edit to improve the article
2007-04-18T03:01:08+00:00,123711921,109672299,0,Cydebot,Price system,Robot - Removing category Systems per [[WP:CFD|CFD]] at [[Wikipedia:Categories_for_discussion/Log/2007 April 11]].
2009-06-25T14:53:36+00:00,298568984,298534841,0,12.11.157.254,Private sector,/* Legal status */
2009-07-14T19:22:44+00:00,302094795,298568984,0,Battlecry,Private sector,/* See also */
2008-02-01T16:33:12+00:00,188401181,187291083,0,Anual,Private sector,/* References */
2007-02-03T13:52:40+00:00,105329595,105329425,0,80.168.226.189,Property,/* General characteristics */ fmt
2009-02-10T05:10:19+00:00,269707998,269705330,0,Ckatz,Property,Reverted edits by [[Special:Contributions/24.4.72.89|24.4.72.89]] ([[User talk:24.4.72.89|talk]]) to last version by ClueBot
2007-09-21T02:46:36+00:00,159310169,159308527,0,Discospinster,Property,Revert to revision 159110996 dated 2007-09-20 05:22:57 by ATGUHBT using [[:en:Wikipedia:Tools/Navigation_popups|popups]]
2007-11-03T19:29:36+00:00,168997439,168230005,0,75.66.83.101,Property,/* See also */
2007-05-17T11:09:15+00:00,131513076,131504832,0,El C,Property,Reverted edits by [[Special:Contributions/81.138.5.36|81.138.5.36]] ([[User talk:81.138.5.36|talk]]) to last version by Sefringle
2008-04-20T17:13:35+00:00,206914413,205118754,0,Weissmann~enwiki,Property,Saint Iraeneus
2008-04-29T00:21:13+00:00,208886201,208833282,0,Kuru,Property,rmv promotional external link
2008-08-25T11:03:22+00:00,234114976,233935109,0,Woffie,Property,/* See also */
2008-08-27T15:40:32+00:00,234584942,234114976,0,Nihiltres,Property,clean up  using [[Project:AutoWikiBrowser|AWB]]
2008-05-06T23:39:50+00:00,210688511,210249735,0,Elving,Property,/* What can be property? */
2008-05-16T11:34:44+00:00,212813960,212800051,0,Kuru,Property,rmv spam
2008-06-04T11:39:12+00:00,217048336,217043514,0,Dan Polansky,Property,/* Critique and response */
2006-05-16T15:19:18+00:00,53517238,53516526,0,GraemeL,Property,Reverted edits by [[Special:Contributions/70.89.251.82|70.89.251.82]] ([[User talk:70.89.251.82|talk]]) to last version by Tawkerbot2
2008-04-22T18:16:11+00:00,207412369,183673986,0,86.150.57.206,Public ownership,"it is possible for a gov to go bankrupt, so changed it"
2006-06-13T17:59:02+00:00,58427372,46322860,0,Backburner001,Public ownership,{{weasel}}
2008-04-22T04:19:04+00:00,207286718,207278605,0,Happyme22,Reaganomics,[[WP:UNDO|Undid]] revision 207278605 by [[Special:Contributions/69.231.73.90|69.231.73.90]] ([[User talk:69.231.73.90|talk]])
2008-02-16T07:13:47+00:00,191809983,191148116,0,K,Reaganomics,removing template placed without talk-page discussion
2007-09-13T23:52:28+00:00,157735995,157735658,0,Paul.h,Reaganomics,Revert to revision 156631240 dated 2007-09-09 05:09:18 by 208.103.143.9 using [[:en:Wikipedia:Tools/Navigation_popups|popups]]
2007-05-06T05:38:33+00:00,128584129,128492913,0,Eagersnap,Reaganomics,"Added much needed balance to nonsensical claim of doubled tax revenue, based on non-inflation adjusted numbers."
2009-09-24T16:15:01+00:00,315941467,296754326,0,PennySeven,Real and nominal value,/* See also */
2008-08-14T00:34:37+00:00,231796625,231429251,0,169.232.217.148,Real and nominal value,
2006-12-16T20:02:44+00:00,94751549,94735809,0,Thomasmeeks,Real and nominal value,/* Uses and examples of nominal and real values */Deleted 2nd to last paragaph:  Interest rates covered in next section.  [[Cost-of-living index]] COLAs and indexed tax rates are catch up.
2009-11-07T18:48:11+00:00,324499531,322121199,0,Ong saluri,Real and nominal value,
2006-09-14T21:55:10+00:00,75774410,74599226,0,SlowMovingTarget,Real and nominal value,"Created WikiLinks for CPI,  GDP, Adam Smith"
2008-01-07T21:18:16+00:00,182811461,167862384,0,MaCRoEco,Real and nominal value,IW fr
2008-12-14T12:16:37+00:00,257894052,257679844,0,Joseph20202021,Real and nominal value,/* References */ Change the font size
2008-11-19T16:59:46+00:00,252806464,252337553,0,DionysosProteus,Realisms,correcting link to [[Realism (theatre)]]
2008-04-08T23:25:38+00:00,204330541,202908344,0,71.241.43.239,Realisms,
2008-06-10T21:56:49+00:00,218492002,218490590,0,Sesshomaru,Realisms,Reverted edits by [[Special:Contributions/122.104.79.1|122.104.79.1]] ([[User talk:122.104.79.1|talk]]) to last version by Prashanthns
2009-02-17T10:40:26+00:00,271317335,271161082,0,Who is like God?,Scientology,"/* Space opera and confidential materials */ Weasel words: opposing opinion preceded by ""but in fact"""
2008-09-19T02:56:21+00:00,239449914,238861860,0,Reeluser,Scientology,/* France */ add recent
2008-03-28T23:11:11+00:00,201693448,201693165,0,GoodDamon,Scientology,/* Beliefs */ Minor copyedit
2009-12-23T09:59:08+00:00,333514439,333506616,0,RUL3R,Scientology,"[[WP:UNDO|Undid]] revision 333506616 by [[Special:Contributions/Spartakingleo|Spartakingleo]] ([[User talk:Spartakingleo|talk]]), already stated below, and no [[WP:RS]] provided"
2006-11-27T14:22:23+00:00,90434119,90408868,0,VxP,Scientology,"Do not call legit edits valdalism - some of Slightlyright's edit was correct, some was not. I believe this is a good middle ground that conforms to [[Wikipedia:V]]"
2009-06-24T05:38:56+00:00,298287626,298284955,0,Alikaalex,Scientology,[[WP:UNDO|Undid]] revision 298284955 by [[Special:Contributions/Tedadore2|Tedadore2]] ([[User talk:Tedadore2|talk]]) to reverse vandalism
2006-05-15T07:58:56+00:00,53281560,53281297,0,Matatigre36,Scientology,/* Scientology and other religions */ fixed LDS Church link
2007-03-30T14:21:22+00:00,119039873,119036955,0,Sander123,Realisms,Reverted 1 edit by [[Special:Contributions/71.58.128.168|71.58.128.168]]  to last revision by  [[User:Peripitus|Peripitus]]. using [[WP:TWINKLE|TW]]
2007-04-06T20:56:35+00:00,120821976,120821579,0,AgentPeppermint,Scientology,[[WP:UNDO|Undid]] revision 120821579 by [[Special:Contributions/Reik483|Reik483]] ([[User talk:Reik483|talk]])
2007-02-27T19:19:48+00:00,111388899,111388576,0,Babblelog5,Scientology,
2009-11-30T10:14:01+00:00,328773053,328561232,0,Spinningspark,Scientology,"Reverted to revision 328465992 by [[Special:Contributions/Hartley Patterson|Hartley Patterson]]; That makes it sound as if Britain, Germany etc DO grant religous status to Scientology. ([[WP:TW|TW]])"
2009-09-21T02:43:37+00:00,315221051,315220661,0,SlashinatorX,Scientology,/* Survival and ethics */
2007-06-07T01:25:15+00:00,136496808,136475824,0,Justanother,Scientology,rem unsourced. You guys are confused - that line could go with the [[Church of Scientology]] not the religious philosophy.
2009-06-19T12:59:33+00:00,297353429,297353259,0,Bravehartbear,Scientology,/* Body and spirit */
2008-03-30T20:35:35+00:00,202134035,202133903,0,68.193.111.80,Socialism,
2007-08-02T03:55:12+00:00,148644253,148566058,0,BibleThumper4 3rdHeaven&Earth,Socialism,/* Criticisms of socialism */
2008-12-12T05:29:32+00:00,257434211,257434113,0,24.69.65.167,Socialism,
2008-06-10T00:19:42+00:00,218295169,218290702,0,82.76.25.205,Socialism,"since Crosland died in 1977, he could not have made that argument after 1995; moving sentence up to establish chronological order"
2009-05-19T17:46:33+00:00,290987603,290986600,0,Dawn Bard,Socialism,"[[WP:UNDO|Undid]] revision 290986600 by [[Special:Contributions/70.124.95.133|70.124.95.133]] ([[User talk:70.124.95.133|talk]])If you're going to vandalise in that fashion, learn to spell ""Barack"""
2009-07-18T18:33:52+00:00,302811104,302286130,0,MauritsBot,Socialism,robot Adding: [[so:HANTIWADAAG الإشتراكية]]
2007-12-05T10:15:07+00:00,175897678,175897345,0,69.6.102.71,Socialism,"paraphrase, rather than quote, whenever possible"
2009-12-26T15:01:35+00:00,334101714,334070049,0,Votemoose,Socialism,/* Europe */  number of seats were reduced from 4 to 3 at 2009 european elections
2010-01-18T11:44:02+00:00,338538451,338460146,0,76.226.34.31,Socialism,/* Technocratic/scientific management versus democratic management */  Added Howard Scott to list of known proponents of  technocratic socialists.
2009-11-14T01:08:07+00:00,325721081,325720861,0,Barek,Socialism,[[WP:UNDO|Undid]] revision 325720861 by [[Special:Contributions/70.254.170.170|70.254.170.170]] ([[User talk:70.254.170.170|talk]]) rvv
2009-02-15T21:56:13+00:00,270973852,270973162,0,SoWhy,Socialism,rv. unexplained removal of content
2008-09-17T16:01:22+00:00,239048271,239048221,0,CanadianLinuxUser,Socialism,Reverted edits by [[Special:Contributions/152.15.33.250|152.15.33.250]] to last version by RolandR ([[WP:HG|HG]])
2008-05-27T03:09:29+00:00,215194149,215152632,0,70.41.97.176,Socialism,/* See also */
2006-09-11T16:43:31+00:00,75120015,75113878,0,Shanes,Socialism,Reverted edits by [[Special:Contributions/216.16.194.14|216.16.194.14]] ([[User talk:216.16.194.14|talk]]) to last version by 24.176.215.106
2008-04-11T13:44:17+00:00,204916837,204916110,0,El C,Socialism,Reverted edits by [[Special:Contributions/68.250.20.1|68.250.20.1]] ([[User talk:68.250.20.1|talk]]) to last version by 71.102.53.48
2008-01-12T13:23:22+00:00,183831853,183743609,0,86.40.188.51,Socialism,/* Socialism as an economic system */
2009-03-28T23:48:09+00:00,280311873,279444516,0,Mtaylor848,Socialism,/* Social Democracy in power */ sp
2006-08-18T20:45:18+00:00,70467281,70386091,0,Jackbirdsong,Socialism,/* Early socialism */ -see discussion
2009-04-11T23:59:10+00:00,283271635,283172702,0,Alex Bakharev,Socialism,[[WP:UNDO|Undid]] revision 283172702 by [[Special:Contributions/Zd12|Zd12]] ([[User talk:Zd12|talk]]) valid info
2008-09-01T22:43:04+00:00,235689156,235684136,0,Mhazard9,Socialism,/* Historical precedents */ Clean up; reduce prolixity.
2008-07-11T12:04:59+00:00,225002243,225002237,0,Excirial,Socialism,Reverted edits by [[Special:Contributions/Chewdiss|Chewdiss]] to last version by SJP (using [[WP:HG|Huggle]])
2009-07-11T13:09:29+00:00,301548023,301547940,0,117.196.136.211,Socialism,
2008-08-01T02:03:54+00:00,229146782,229146490,0,Discospinster,Socialism,Reverted edits by [[Special:Contributions/98.209.1.205|98.209.1.205]] to last version by ClueBot ([[WP:HG|HG]])
2010-01-20T06:20:10+00:00,338907408,338892358,0,Tainted Conformity,Socialism,"/* See also */ Even if he is socialist, not the place to put it."
2008-03-14T17:36:41+00:00,198232393,198230446,0,Elliskev,Socialism,rv multiple edits to last good
2010-02-08T20:19:02+00:00,342767490,342767429,0,Madhero88,Socialism,Reverted edits by [[Special:Contributions/66.240.57.87|66.240.57.87]] to last revision by Simonm223 ([[WP:HG|HG]])
2007-11-19T02:35:15+00:00,172408583,172408288,0,Ghostbear616,Socialism,[[WP:UNDO|Undid]] revision 172408288 by [[Special:Contributions/67.82.33.187|67.82.33.187]] ([[User talk:67.82.33.187|talk]])
2009-02-02T00:16:01+00:00,267935896,267935865,0,Little Mountain 5,Talk:Anarchism,Reverted edits by [[Special:Contributions/67.165.159.194|67.165.159.194]] to last revision by Cast ([[WP:HG|HG]])
2007-04-30T19:18:42+00:00,127214625,126175170,0,SiberioS,Talk:Anarchism,/* Culling the source-spam */
2006-06-15T05:12:29+00:00,58713558,58570108,0,85.234.144.239,Talk:Anarchism,"/* Anarchism, Possession and Property */"
2009-03-08T14:54:10+00:00,275815631,275815581,0,Jrtayloriv,Talk:Anarchism,/* Straw poll */  oops forgot to sign
2007-02-08T14:42:30+00:00,106577302,106496302,0,Gnostrat,Talk:Anarchism,/* And now a break from the arguments about anarcho-capitalism.... */ replying
2008-04-08T22:22:27+00:00,204317655,202871731,0,Happy-melon,Talk:Anarchism,"expanding redirect: ""talkheader4"" --> ""talkheader""  using [[Project:AutoWikiBrowser|AWB]]"
2007-02-16T17:59:40+00:00,108648655,108205902,0,Gnostrat,Talk:Anarchism,/* And now a break from the arguments about anarcho-capitalism.... */
2006-10-29T01:54:41+00:00,84343696,84343097,0,Aithérios,Talk:Anarchism,/* Zaxlebaxism */
2006-06-30T06:59:04+00:00,61334264,61288200,0,Pbanger,Talk:Anarchism,"/* Proudhon and ""statist capitalism"" */"
2009-01-19T04:43:07+00:00,265017877,265015026,0,ChildofMidnight,Talk:Anarchism,/* Request for Comments: Anarchism and Libertarianism */ reply
2008-02-20T00:17:05+00:00,192686433,192625769,0,Doright,Talk:Anarchism,"/* ""Contradict"" tag */ more discussion"
2009-01-05T23:34:19+00:00,262192667,262192268,0,Costho,Talk:Anarchism,/* Libertarianism = Anarchism */
2008-03-01T07:10:11+00:00,195073502,194879037,0,Hazillow,Talk:Anarchism,anarcho capitalism
2007-06-26T02:11:03+00:00,140653443,140585279,0,Rmky87,Talk:Anarchism,rm redundant template
2006-07-19T14:47:26+00:00,64669947,64665177,0,Bengalski,Talk:Anarchism,/* POV tag */ godwin
2006-05-24T12:44:04+00:00,54880369,54880312,0,N1h1l,Talk:Anarchism,/* Aryan Anarchism */  - spelling
2006-07-16T16:31:21+00:00,64132918,64115823,0,Bacchiad,Talk:Anarchism,/* Fact tags and one clarification */
2010-01-08T22:11:43+00:00,336682210,336681962,0,Jezhotwells,Talk:Anarchism,fix nom in banner
2007-06-28T20:07:41+00:00,141239027,141090542,0,B5baxter,Talk:Anarchism,/* green anarchism section */
2009-01-24T00:35:21+00:00,266023640,265063890,0,Anarchangel,Talk:Anarchism,Oppose- add to Recent schools of thought
2008-12-07T18:05:08+00:00,256452546,256449033,0,Randy6767,Talk:Anarchism,/* Anarchons? */
2006-05-15T20:41:48+00:00,53382364,53382256,0,165.155.176.1,Talk:Anarchism,
2007-06-23T03:12:58+00:00,140041148,140033019,0,Illegal editor,Talk:Anarchism,/* anarchism and authority */
2006-10-18T00:43:00+00:00,82112592,82111728,0,Hixx,Talk:Anarchism,/* Disputes about which schools are not anarchist */
2006-06-06T02:09:42+00:00,57105797,56941476,0,Exander,Talk:Anarchism,Somalia?
2008-01-07T08:04:49+00:00,182695343,182657516,0,124.189.244.79,Talk:Anarchism,/* anarchism.net */
2007-09-12T01:34:22+00:00,157283333,157217498,0,Mozric,Talk:Anarchism,/* Picture of Ayn Rand in Criticisms of anarchism */
2006-05-22T04:08:31+00:00,54471161,54385903,0,216.66.19.130,Talk:Anarchism,/* Proudhon essay */
2008-07-22T01:31:28+00:00,227117244,226548578,0,Apollonius 1236,Talk:Anarchist communism,/* Collective ownership */
2007-01-17T18:11:31+00:00,101373775,101182558,0,Saswann,Talk:Anarcho-capitalism,
2008-08-27T14:39:58+00:00,234573399,234185911,0,82.131.210.162,Talk:Anarcho-capitalism,/* 27 meters of bovine waste! */ new section
2007-02-14T19:47:32+00:00,108144762,108144523,0,170.54.58.4,Talk:Anarcho-capitalism,/* Anarcho-capitalism and Individualist Anarchism */
2006-07-31T23:54:54+00:00,66947937,66942180,0,Rosicrucian,Talk:Anarcho-capitalism,/* Topheavy */
2007-09-24T02:36:41+00:00,159931515,159805381,0,Tacitus Prime,Talk:Anarcho-capitalism,/* Currency */
2006-08-06T06:37:24+00:00,67962338,67878948,0,Uiofvnondc,Talk:Anarcho-capitalism,/* Modern Somalia */
2007-04-13T03:51:16+00:00,122409347,119571420,0,Kerricade,Talk:Anarcho-capitalism,
2006-05-31T13:34:39+00:00,56124394,50932655,0,83.131.252.127,Talk:Anti-capitalism,/* Name */
2007-02-16T06:02:31+00:00,108549764,94412696,0,75.73.137.45,Talk:Anti-capitalism,
2007-09-26T04:03:19+00:00,160402408,160402355,0,Jiminezwaldorf,Talk:Anti-capitalism,
2006-08-10T20:27:57+00:00,68884064,68882633,0,AOluwatoyin,Talk:Ayn Rand,/* Neutrality sticker and Ayn Rand article. */
2007-08-04T05:01:49+00:00,149079914,149054741,0,70.231.126.125,Talk:Ayn Rand,/* Her influential and controversial ideas have attracted both enthusiastic admiration and scathing denunciation. */
2008-09-26T20:19:47+00:00,241198553,241166979,0,Happy-melon,Talk:Ayn Rand,do we really need a bespoke image?
2006-08-25T08:51:31+00:00,71775669,71764805,0,AOluwatoyin,Talk:Ayn Rand,/* dubious */
2007-07-31T12:16:01+00:00,148255906,148255723,0,90.199.0.236,Talk:Ayn Rand,/* Rand and Kant */
2007-05-13T23:00:25+00:00,130642008,129983078,0,W7KyzmJt,Talk:Ayn Rand,"Changing my signature to include my username, Replaced: <font color=""green"">''Robert''</font> → <font color=""green"">''BlastOButter42''</font>  using [[Project:AWB|AWB]]"
2009-12-23T02:05:22+00:00,333432965,331189926,0,D Monack,Talk:Ayn Rand,/* Nathaniel Branden affair */
2009-10-03T10:05:36+00:00,317621311,317564169,0,TheScotch,Talk:Ayn Rand,/* Photo */
2006-09-04T05:56:59+00:00,73707310,73707163,0,Wilanthule,Talk:Ayn Rand,/* Amusing */
2006-05-20T14:30:32+00:00,54193922,54134256,0,Alienus,Talk:Ayn Rand,/* Kant */ Rand's view
2006-12-20T11:34:10+00:00,95500017,95499854,0,Eabernstein,Talk:Ayn Rand,/* Ayn Rand's father name in the article needs correction. */
2008-03-29T09:46:25+00:00,201780879,201780844,0,Chinesearabs,Talk:Ayn Rand,"/* Reads like a Rand self-advertisement, is NNPOV, and sucks. Proposal for a rewrite of the Kant section */ added name"
2007-05-27T03:12:03+00:00,133777483,133411652,0,24.44.99.211,Talk:Ayn Rand,/* Andrewsandberg edits */ comment
2006-05-20T03:01:50+00:00,54134256,54134215,0,169.233.3.16,Talk:Ayn Rand,/* Kant */
2009-05-22T00:09:02+00:00,291509837,291503174,0,ChildofMidnight,Talk:Ayn Rand,/* London Review of Books on Ayn Rand Wiki article */ comment
2007-09-12T01:31:27+00:00,157282791,157103555,0,Mozric,Talk:Ayn Rand,/* Rand as an anarchist? */
2009-11-13T03:15:22+00:00,325558665,325478619,0,Phil Spectre,Talk:Ayn Rand,/* Trouble in paradise? */
2006-06-17T03:17:35+00:00,59051757,59010491,0,Moncrief,Talk:Ayn Rand,/* When/how did she learn English? */
2006-11-10T05:28:23+00:00,86882889,86639759,0,70.187.166.230,Talk:Ayn Rand,/* Some thoughts on her economic views */
2006-07-29T04:22:40+00:00,66472876,66472780,0,Geeman,Talk:Ayn Rand,/* RfC summary */
2006-05-30T06:32:23+00:00,55882378,55882172,0,Alienus,Talk:Ayn Rand,/* Philosophical Legacy */ fan
2009-01-22T00:09:42+00:00,265596783,264496698,0,Smallman12q,Talk:Capitalism,{{Pbneutral}}
2009-05-13T00:35:34+00:00,289582788,288696098,0,Unionhawk,Talk:Capitalism,Vital
2007-04-17T12:33:20+00:00,123510729,120708312,0,Muchris,Talk:Capitalism,{{WikiProject Economics|class=|importance=}}
2007-10-09T22:59:45+00:00,163433761,163433430,0,Walla Walla,Talk:Capitalism,/* Adam Smith */
2006-07-24T17:12:16+00:00,65584460,64840737,0,Luis rib,Talk:Capitalism,/* Market economy */
2006-09-23T01:05:04+00:00,77279676,77277002,0,Omegadirective,Talk:Capitalism,/* Is a corporation a public or private entity? */
2007-05-11T18:45:05+00:00,130148750,130148031,0,D prime,Talk:Capitalism,/* Capitalism=utopia? */
2007-05-10T18:57:44+00:00,129894278,129883567,0,Atlastawake,Talk:Capitalism,/* Contradiction in the criticisms */
2007-02-25T12:21:16+00:00,110815176,110813763,0,Crocodile Punter,Talk:Capitalism,made boxes small
2008-01-19T12:16:12+00:00,185410888,185410813,0,80.254.147.100,Talk:Capitalism,/* Profit */
2009-02-03T00:39:57+00:00,268151205,265596783,0,Supergoalie1617,Talk:Capitalism,/* Introduction is too long */
2007-07-04T23:34:32+00:00,142558753,141691470,0,Mr soros,Talk:Capitalism,censure?
2006-11-23T11:05:25+00:00,89633337,89619715,0,SneakyTodd,Talk:Capitalism,/* VisionThing GDP chart */
2009-05-31T03:29:59+00:00,293444635,293444113,0,BernardL,Talk:Capitalism,/* Previous Discussion */
2008-11-13T10:57:27+00:00,251535128,251529609,0,Ckatz,Talk:Capitalism,rv. POV - see also [[Special:Contributions/76.226.136.71]]
2007-04-19T05:46:39+00:00,124015625,123510729,0,Lydia Larkin,Talk:Capitalism,
2006-08-02T22:42:58+00:00,67330747,66796632,0,SchuminWeb,Talk:Capitalism,Template substitution  using [[WP:AWB|AWB]]
2009-01-16T17:31:57+00:00,264496698,264496584,0,Socialism20091011,Talk:Capitalism,/* The End of Money */
2009-08-13T01:57:23+00:00,307669794,307669270,0,BernardL,Talk:Capitalism,/* Industrialism section needs alot of work! */
2006-11-09T18:11:57+00:00,86758357,84174038,0,201.43.6.118,Talk:Capitalism,/* Capitalism in Eastern Europe */
2006-05-15T13:39:12+00:00,53312942,52856001,0,La goutte de pluie,Talk:Classical liberalism,"header, todo, cleanup"
2009-08-14T18:58:37+00:00,307988858,307316484,0,76.26.96.62,Talk:Classical liberalism,
2009-12-14T11:02:52+00:00,331598911,331582689,0,209.217.195.183,Talk:Classical liberalism,/* Unacceptable source */
2007-10-14T19:00:59+00:00,164546920,164544578,0,68.110.172.111,Talk:Classical liberalism,"removed talk box, editor has not responded in 11 months"
2006-05-28T21:17:47+00:00,55628934,54332501,0,Nat Krause,Talk:Classical liberalism,link /* Roderick Long article */
2010-01-24T01:35:50+00:00,339643198,307265123,0,24.224.180.76,Talk:Collectivism (disambiguation),Asked question about how collectivism has been used in the context of psychology.
2006-05-12T03:27:26+00:00,52778524,52777689,0,24.130.240.164,Talk:Corporatism,
2007-06-08T14:51:16+00:00,136839883,136788191,0,RandomHumanoid,Talk:Fascism,Reverted 1 edit by [[Special:Contributions/Asimon85|Asimon85]] identified as [[WP:VAND|vandalism]] to last revision by [[User:RandomHumanoid|RandomHumanoid]]. using [[WP:TWINKLE|TW]]
2009-09-28T19:34:09+00:00,316742739,316587811,0,UNSC Trooper,Talk:Fascism,/* Movements with similar ideology but dating earlier */
2007-07-13T16:38:04+00:00,144427448,143562814,0,Paul Barlow,Talk:Fascism,/* Merging [[Nordic theory]] into this article */
2006-12-29T14:39:37+00:00,97138951,96713450,0,Felix-felix,Talk:Fascism,
2008-11-05T16:05:19+00:00,249857557,249857267,0,AlexTiefling,Talk:Fascism,/* Notable Fascists? */
2006-05-23T09:21:57+00:00,54678516,54044269,0,Scherfk,Talk:Fascism,
2008-02-01T18:27:06+00:00,188423349,186149727,0,204.111.250.207,Talk:Fascism,
2009-05-01T00:05:22+00:00,287151920,287143850,0,86.148.145.120,Talk:Fascism,/* Why */
2007-06-26T21:29:21+00:00,140819676,140793349,0,Paul Barlow,Talk:Fascism,/* Merging [[Nordic theory]] into this article */
2007-09-15T14:22:39+00:00,158053290,155176027,0,Sviatoslav86,Talk:Fascism,/* Nazism and Islam */
2009-07-27T23:49:19+00:00,304576845,304571090,0,Anarchangel,Talk:Fascism,R Stackelberg & HR Pufnstuf
2006-10-11T13:29:06+00:00,80808622,80808173,0,Norvo,Talk:Fascism,/* Failure of democracies reason for fascism */
2009-02-06T08:20:17+00:00,268877564,268589410,0,MZMcBride,Talk:Fascism,archiving talk
2006-05-11T13:57:59+00:00,52658229,51424680,0,71.253.57.234,Talk:Fascism,
2008-04-29T18:36:15+00:00,209052456,208957999,0,Ruziklan,Talk:Fascism,/* Third way */ new section
2006-05-03T21:25:23+00:00,51424680,51353501,0,Etaonsh,Talk:Fascism,/* Re: 'Scope of the word fascism' */
2009-06-20T14:44:19+00:00,297553227,297553048,0,Rd232 public,Talk:Fascism,/* stop the reverting madness - ONE REVERT per editor effective immediately */ addendum
2008-05-16T06:54:03+00:00,212785596,212298523,0,Udonknome,Talk:Fascism,/* Discuss splitting or merging articles */
2006-06-24T17:27:41+00:00,60360869,59410221,0,Potashnik,Talk:Fascism,/* Fascist Economics */
2007-01-25T07:38:44+00:00,103098848,103098815,0,Alphachimp,Talk:Fascism,Reverted edits by [[Special:Contributions/4.188.16.46|4.188.16.46]] ([[User talk:4.188.16.46|talk]]) to last version by Dave6
2009-08-17T11:54:44+00:00,308464992,308464940,0,InquistiorV,Talk:Fascism,/* The view not being allowed */
2009-09-14T10:56:06+00:00,313819073,313804750,0,151.23.12.218,Talk:Fascism,/* Position in the political spectrum – Neutrality tag */
2007-06-02T07:58:46+00:00,135279226,133265445,0,70.254.204.107,Talk:Fascism,/* Copied Material at Eliteintegrity.co.uk */
2008-01-02T23:51:38+00:00,181740088,181739746,0,76.19.175.114,Talk:Fascism,/* Wikipedia the fascist encyclopaedia */
2009-06-17T23:28:36+00:00,297052686,297050278,0,Rd232 public,Talk:Fascism,/* Fascism RfC */ comment
2010-01-27T03:34:01+00:00,340271672,339957020,0,MathFacts,Talk:Fascism,/* Fascism is on the Left */
2007-03-23T05:15:18+00:00,117221858,117219012,0,82.21.144.216,Talk:Fascism,/* Laissez faire/ free market and capitalism */
2009-11-04T19:18:00+00:00,323940049,323938238,0,N-HH,Talk:Fascism,/* Was fascism extreme right? */ Restore parts of my comment removed by last edit by [[User:Mamalujo]]. I assume deletion was a mistake
2007-07-09T19:40:53+00:00,143562814,140819676,0,Billz1936,Talk:Fascism,/* Are Fascism and Nazism forms of Socialism? */
2008-03-30T05:14:26+00:00,201983288,200714991,0,67.162.55.61,Talk:Fascism,/* Poetry as a source? */
2007-05-19T21:24:42+00:00,132082091,132081820,0,Raggz,Talk:Fascism,/* Copied Material at Eliteintegrity.co.uk */
2007-02-22T01:08:50+00:00,109956508,109956348,0,Damis,Talk:Fascism,/* Antisemitism */
2009-03-27T02:55:00+00:00,279932262,279931272,0,Arationalguy,Talk:Fascism,/* Classical liberalism */
2006-07-16T20:59:57+00:00,64170883,61051902,0,Blahblahblahblahblahblah,Talk:Individualist anarchism,
2006-12-30T02:01:28+00:00,97254154,88229476,0,Red1 D Oon,Talk:Individualist anarchism,/* Individualist Anarchist Symbol */  A for ADempiere?
2007-07-04T16:29:15+00:00,142482305,138978047,0,Wikidea,Talk:Labor theory of value,Absence of John Locke
2007-01-10T00:50:35+00:00,99664312,99315848,0,Yath,Talk:Liberalism in the United States,"/* Moving the article? */ make voting sections, +vote"
2009-01-23T22:21:18+00:00,266000559,247982013,0,71.241.144.130,Talk:Liberalism in the United States,
2008-06-04T20:18:46+00:00,217145671,212228922,0,147.9.203.102,Talk:Modern liberalism in the United States,
2007-07-31T02:52:55+00:00,148187406,136673796,0,Beland,Talk:Monopoly,"assessment - B class, Top importance"
2008-02-11T07:52:52+00:00,190575606,184577130,0,Kozuch,Talk:Monopoly,/* Vandalism */ new section
2008-01-15T21:53:52+00:00,184577130,184197363,0,Zenwhat,Talk:Monopoly,/* Definition */
2008-07-02T19:02:12+00:00,223137074,218832817,0,GentlemanGhost,Talk:Monopoly,{{Business}}
2008-01-16T01:23:33+00:00,184624183,184623667,0,81.159.230.146,Talk:Objectivism,/* Article review */
2009-05-03T21:18:12+00:00,287715648,287715298,0,Peter Damian,Talk:Objectivism,/* Parenthesized Redundancies */
2006-05-06T02:45:45+00:00,51777898,50810909,0,Alienus,Talk:Objectivism,Removed uncited apologetics.
2009-02-23T06:57:00+00:00,272670979,272670705,0,67.181.239.134,Talk:Objectivism,/* Intellectual Impact */
2008-01-08T19:28:02+00:00,183006812,182537461,0,Vassyana,Talk:Objectivism,"/* Failed ""good article"" nomination */ response"
2006-10-12T04:50:12+00:00,80953381,80334871,0,71.2.170.172,Talk:Objectivism,
2006-07-15T02:55:57+00:00,63895134,63894955,0,D prime,Talk:Objectivism,"/* Expert help? */  ""no"" v ""know"" was a huge typo; I swear."
2008-06-15T04:27:45+00:00,219425664,218363813,0,NrDg,Talk:Objectivism,Reverted edits by [[Special:Contributions/SargJohnLennon|SargJohnLennon]] ([[User talk:SargJohnLennon|talk]]) to last version by Karbinski
2006-10-26T04:07:08+00:00,83781077,83208723,0,141.161.32.66,Talk:Objectivism,/* Acceptance by mainstream philosophy */
2009-02-10T23:16:27+00:00,269878048,269877514,0,Zeng8r,Talk:Objectivism,"whoops, missed it. nevermind..."
2006-05-12T07:54:21+00:00,52802940,52802922,0,Pjacobi,Talk:Objectivism,/* Is Objectivist philosophy a [[cult]] */
2007-01-27T04:31:35+00:00,103540396,101698770,0,ForrestLane42,Talk:Objectivism,
2009-04-28T18:20:27+00:00,286691493,286671760,0,Peter Damian,Talk:Objectivism,/* Unnecessary rebuke */
2007-07-25T06:56:54+00:00,146942588,146807362,0,Rocket Socket,Talk:Planned economy,"/* Centrally Commanded v. Centrally Planned v. Generically ""Planned"" */"
2007-10-21T17:48:39+00:00,166089362,166089142,0,Fephisto,Talk:Planned economy,/* Hayek's Criticisms */
2007-07-04T02:02:43+00:00,142369111,142367483,0,Kuru,Talk:Profit/Old history,Reverted edits by [[Special:Contributions/131.215.220.112|131.215.220.112]] ([[User talk:131.215.220.112|talk]]) to last version by Anchor Link Bot
2006-05-12T16:54:48+00:00,52859070,52859022,0,Thivierr,Talk:Reaganomics,/* afd */
2007-02-05T21:22:29+00:00,105886929,83839234,0,Kristbg,Talk:Reaganomics,added AID nomination
2008-04-02T20:30:02+00:00,202880125,202658328,0,69.142.219.168,Talk:Reaganomics,/* Bias */
2008-07-16T18:18:38+00:00,226070196,217603354,0,H64,Talk:Reaganomics,/* Bias */
2007-01-16T08:06:26+00:00,101059200,101045251,0,BTfromLA,Talk:Scientology,/* [[Talk:Scientology]] */ What the... ?
2008-02-08T18:18:19+00:00,190002924,189963699,0,Coffeepusher,Talk:Scientology,"/* Dangerous Cult redirect */ wikilinked ""Dangerous Cult"" in order to better check if page ever gets remade"
2009-04-26T08:28:30+00:00,286194594,286166407,0,Hordaland,Talk:Socialism,/* American politics v. European Academics */ Well said!
2008-05-30T15:03:35+00:00,215978206,215977186,0,86.140.39.142,Talk:Socialism,/* Biased? */
2009-02-01T13:49:31+00:00,267825766,267327354,0,Jezcentral,Talk:Socialism,"/* Possible confusion in ""Social Democracy in power"" section. */"
2007-06-16T00:31:48+00:00,138461710,138457780,0,Andysoh,Talk:Socialism,"/* Aspirations or ""Rhetoric"", theory or ""agenda"" - POV?  And removal of link */"
2006-05-17T16:06:46+00:00,53701791,53701661,0,Dp462090,Talk:Socialism,/* To Gatoclass and others from 130.216.191.184. */
2009-11-02T12:46:45+00:00,323461065,323343290,0,84.177.250.140,Talk:Socialism,
2008-02-24T14:53:25+00:00,193704299,193484019,0,Francomemoria,Talk:Socialism,/* Removed statement from criticisms of socialism */
2009-04-11T14:37:07+00:00,283180604,283156396,0,Tangent747,Talk:Socialism,/* Sourced/Referenced Information repeatedly being removed */ new section
2009-03-26T13:51:23+00:00,279798176,279798011,0,Alansohn,Talk:Socialism,Reverted edits by [[Special:Contributions/66.76.145.44|66.76.145.44]] to last revision by RolandR ([[WP:HG|HG]])
2007-09-08T10:16:03+00:00,156456284,156456152,0,Francomemoria,Talk:Socialism,/* Present Intro */
2007-07-02T20:46:56+00:00,142087753,142067415,0,Andysoh,Talk:Socialism,Decision time on the POV tag and re-worked alternative
2007-08-21T03:59:21+00:00,152623834,149829583,0,Luatha,Talk:Truthiness,Image removal
2007-01-19T18:50:32+00:00,101835152,101835021,0,Croctotheface,Talk:Truthiness,/* Why italics? */
2008-04-18T23:19:10+00:00,206590787,200219750,0,Ismouton,Talk:Truthiness,/* Wordiness */
2008-04-23T16:52:07+00:00,207643453,207529419,0,Kevin Baas,Talk:Truthiness,"/* From a consensus deleted article to a FA. You've come a long way, truthiness. */"
2008-03-23T03:02:19+00:00,200219750,192835230,0,70.112.121.70,Talk:Truthiness,/* He said / she said */
2006-06-17T12:19:54+00:00,59098136,59098094,0,Pinkville,Talk:Truthiness,/* Truthiness is mysticism */
2009-03-28T22:28:16+00:00,280297841,280297495,0,Vsmith,Talk:United States,[[WP:UNDO|Undid]] revision 280297495 by [[Special:Contributions/EU 100%|EU 100%]] ([[User talk:EU 100%|talk]])??
2008-03-18T06:39:31+00:00,199034491,199034441,0,Dallan007,Talk:United States,/* Track & Field */
2008-02-28T02:52:13+00:00,194572171,194571962,0,AlexNebraska,Talk:United States,
2008-05-14T02:42:37+00:00,212266107,212266061,0,Delldot,Talk:United States,Reverted edits by [[Special:Contributions/Kyrene|Kyrene]] ([[User talk:Kyrene|talk]]) to last version by Kman543210
2007-07-06T21:18:04+00:00,142975539,142954635,0,Jaxad0127,Talk:United States,/* United States of America */ unsigned comment
2008-03-21T22:28:50+00:00,199933399,199712025,0,75.16.136.29,Talk:United States,/* Another argument for name change */
2009-09-29T05:26:10+00:00,316831250,316831204,0,128.135.88.96,Talk:United States,/* Congress declaring wars */
2007-09-19T06:49:15+00:00,158898356,158885542,0,Hcberkowitz,Telenet,/* Internal Network Technology */
2009-03-19T12:37:58+00:00,278318190,240562471,0,Rick7425,Telenet,/* Coverage */
2006-08-04T10:26:36+00:00,67612890,67612671,0,Wai Wai,Template:Request quotation,copyedit
2009-01-07T20:21:27+00:00,262597912,261887436,0,69.143.181.61,Truthiness,
2006-07-07T09:21:05+00:00,62526428,62196881,0,82.82.174.207,Truthiness,/* American Dialect Society's Word of the Year */
2006-10-12T08:24:34+00:00,80973375,79463058,0,Stromdal,Truthiness,/* American Dialect Society's Word of the Year */
2006-12-16T04:44:51+00:00,94649525,94649147,0,Adavidb,United States,/* Political system */ updated author names
2006-08-06T08:35:22+00:00,67975709,67974398,0,65.5.187.207,United States,
2006-10-20T01:22:38+00:00,82541142,82477035,0,Jaxad0127,United States,Restore not on Internet infrastructure and rearranged some languages (two were moved above the categories)
2007-01-03T17:09:23+00:00,98207510,98206381,0,Pethr,United States,/* Health */ ref fix 2
2007-12-21T05:35:13+00:00,179340003,179338136,0,Wtmitchell,United States,"Fix some broken citations, tag others, find others in archives."
2009-04-01T21:58:25+00:00,281163605,281082122,0,D6,United States,fmt (fix [[Wikipedia:WikiProject_Check_Wikipedia#Template_with_Unicode_control_characters|WikiProject Check Wikipedia#Template with Unicode control characters]])
2007-09-10T19:41:10+00:00,156988387,156978331,0,Thunderbird2,United States,/* Geography */ fix rounding
2009-03-07T21:13:36+00:00,275671673,275524683,0,DocKino,United States,/* Economy */ Correct unemployment data month
2006-08-09T01:03:11+00:00,68515308,68508597,0,Zarex,United States,
2007-12-24T14:21:23+00:00,179956158,179913187,0,Locaracle,United States,
2008-09-15T01:38:37+00:00,238486516,238448834,0,DocKino,United States,For consistency with style in Etymology section
2007-01-17T17:19:40+00:00,101363246,101361392,0,Aufheben,United States,
2007-02-20T06:03:51+00:00,109494104,109470144,0,Red Slash,United States,/* Geography */ fx
2007-10-16T06:14:46+00:00,164897603,164897328,0,Caniago,United States,template as per other country articles
2006-09-07T12:55:48+00:00,74323949,74280434,0,Jaxad0127,United States,/* Economy */ Spaces over underscores
2008-08-14T18:14:39+00:00,231946713,231912454,0,Smcmanus,United States,/* Contemporary era */
2007-03-28T17:25:30+00:00,118558811,118557653,0,Ief,United States,
2008-08-09T02:36:13+00:00,230737105,230736252,0,Streryan,United States,Updated National Debt
2007-12-15T07:41:22+00:00,178042736,178033074,0,Congolese fufu,United States,/* Crime and punishment */ New Jersey no longer has the kill penalty
2009-09-05T03:18:07+00:00,311950730,311950370,0,DocKino,United States,"/* Geography, climate and environment */ Article uses serial comma"
2009-12-18T18:03:19+00:00,332526269,332525956,0,Rumkles,United States,/* Demographics */ fixed template glitch
2008-11-16T16:03:50+00:00,252172374,252170744,0,Johnmc318,United States,
2009-02-06T09:27:36+00:00,268884943,268857463,0,Bird1455,United States,/* Food */
2007-01-24T17:51:04+00:00,102942164,102940921,0,Uris,United States,/* General situation */ Mention of [[NASDAQ]] which fulfills a similar role.
2008-05-03T19:22:06+00:00,209956048,209954608,0,Qqqqqq,United States,Rv unexplained edit.
2007-02-26T23:14:16+00:00,111191348,111181764,0,Benbristol,United States,
2006-08-21T19:15:12+00:00,71015812,70975870,0,Rotten,United States,/* Economy */
2008-06-28T07:06:39+00:00,222236655,222236629,0,Closedmouth,United States,Reverted edits by [[Special:Contributions/Cutrupi04|Cutrupi04]] to last version by Chicopac (using [[WP:HG|Huggle]])
2008-09-03T00:14:02+00:00,235926924,235925782,0,DocKino,United States,/* Income and human development */ Minor copyedit
2008-06-13T09:44:06+00:00,219047365,218885664,0,Atoric,United States,"reverted unexplained revert; transportation has the highest consumption rates, accounting for approximately 70% of the oil used in the United States"
2007-08-23T21:26:47+00:00,153224666,152508731,0,Banno,User talk:Dullfig,/* Objectivist theory of value */
2007-06-05T18:19:54+00:00,136110940,136110444,0,86.134.90.245,User talk:Intangible,/* Not me */
2006-05-25T02:50:35+00:00,55004048,54720812,0,Daniel11,User talk:Intangible,Neolibertarianism - conservative/neoconservative
2009-03-30T19:45:42+00:00,280712214,261843017,0,Stormbay,User talk:Intangible,/* Image copyright problem with File:Ahmed Aboutaleb.jpg */ prodwarning
2009-01-08T10:04:13+00:00,262723615,258530142,0,Socrates2008,User talk:Jack Upland,KAL 007
2009-07-22T09:59:17+00:00,303506516,302694302,0,Ajayvius,User talk:Jack Upland,/* North Epping murders */ new section
2009-03-28T01:50:58+00:00,280130421,277463895,0,MifterBot I,User talk:Jarkeld,[[WP:BOT|BOT]]: [[Wikipedia:Template Substitution|Subst:'ing]]; Error? [[User Talk:Mifter|Report It!]]
2007-03-15T03:13:20+00:00,115235450,102050398,0,Oberst,User talk:Snowded,Stevenson-Perez
2008-05-19T11:18:05+00:00,213445572,212226212,0,Wikipéire,User talk:Snowded,/* Hen Wlad Fy Nhadau */ new section
2007-12-27T19:33:31+00:00,180471432,128389618,0,Neelix,User talk:Snowded,/* Knowledge */ new section
2007-12-10T13:45:11+00:00,176984035,176952737,0,MRSC,User talk:Yorkshirian,==Issues relating to civility==
2006-11-05T06:50:08+00:00,85804856,77583714,0,Lquilter,Utopia (anarchist community),"more specific cat anarchist communities, added intent commnts"
2009-10-05T12:58:53+00:00,318036006,318035733,0,Myk60640,Walmart,formating chanage
2007-02-05T00:38:01+00:00,105689217,105677399,0,Caldorwards4,Walmart,/* Sam's Club */
2007-10-07T06:36:41+00:00,162816754,162808853,0,Tregoweth,Walmart,Reverted edits by [[Special:Contributions/In My Life Guy|In My Life Guy]] ([[User talk:In My Life Guy|talk]]) to last version by SecretaryNotSure
2007-03-01T14:13:27+00:00,111825246,111825173,0,Mailer diablo,Walmart,Reverted edits by [[Special:Contributions/24.218.241.34|24.218.241.34]] ([[User talk:24.218.241.34|talk]]) to last version by 199.200.253.9
2006-05-07T01:03:49+00:00,51911274,51876470,0,Fernandobouregard,Walmart,/* See also */
2008-12-25T02:58:02+00:00,259999170,259830397,0,Tomtom9041,Walmart,/* Other */
2006-12-27T02:40:33+00:00,96664181,96639829,0,Lmcelhiney,Walmart,Redundant text and citation needed.
2008-03-17T17:24:16+00:00,198895141,198894969,0,Yintan,Walmart,Reverted 1 edit by [[Special:Contributions/Colmlqs|Colmlqs]] identified as [[WP:VAND|vandalism]] to last revision by [[User:ZippyGoogle|ZippyGoogle]]. ([[WP:TW|TW]])
2006-12-19T17:44:18+00:00,95341324,95263982,0,American Brit,Walmart,Vandalism Revert
2008-11-30T21:14:57+00:00,255061401,255060398,0,Carleas,Walmart,[[WP:UNDO|Undid]] revision 255060398 by [[Special:Contributions/Carleas|Carleas]] ([[User talk:Carleas|talk]]) My bad.
2009-03-18T23:56:49+00:00,278226061,278208285,0,Drewkopp,Walmart,"In the last paragraph before ""history,"" added ""and even management efforts to pressure employees to vote for specific parties during national elections."""
2009-12-15T02:52:10+00:00,331735802,330368864,0,Stepheng3,Walmart,coord parms
2007-01-20T07:48:55+00:00,101963168,101916528,0,Thetourist,Walmart,removed NAMBLA vandalism
2008-05-26T09:48:56+00:00,215016871,214868037,0,Morenoodles,Walmart,reverting poorly explained deletion
2009-05-01T13:23:42+00:00,287244268,287243380,0,MrRadioGuy,Walmart,clean up using [[Project:AutoWikiBrowser|AWB]]
2007-11-18T22:04:53+00:00,172360895,171870121,0,Dispenser,Walmart,Fixed broken links to external websites; [[Wikipedia:Dead external links|you can help too!]]
2007-03-13T04:09:08+00:00,114723309,114707425,0,ThoHug,Walmart,/* History */
2008-03-26T00:14:33+00:00,200939967,200660780,0,Stephenchou0722,Walmart,/* Diversity */ combine sentences
2008-12-13T14:44:17+00:00,257694907,257568906,0,MSGJ,Wikipedia talk:Administrators' noticeboard,/* Archiving */ new section
2007-03-08T18:33:44+00:00,113627361,113177223,0,Autocracy,Wikipedia talk:Administrators' noticeboard,Username promoting company -- self-edited article
2008-03-16T22:44:57+00:00,198730323,198710468,0,Dapi89,Wikipedia talk:Administrators' noticeboard,/* Request for unbanning */
2007-11-15T16:12:09+00:00,171683850,171683437,0,Doc glasgow,Wikipedia talk:Ignore all rules,"Don't be a dick[1]. If people abided by this, we wouldn't need any other policies about behavior. This is a corollary of ignore all rules, and most other rules are special cases of this one."
2009-11-20T02:29:01+00:00,326854434,326851803,0,Dank,Wikipedia talk:Ignore all rules,/* Tweak to categories */  works for me
2006-12-15T18:44:30+00:00,94552756,94526041,0,192.75.48.150,Wikipedia talk:Ignore all rules,/* Suggested alteration */ following the rules is not an excuse
2008-10-23T02:06:47+00:00,247087118,245615237,0,Kim Bruning,Wikipedia talk:Ignore all rules,/* Straw */ Hail Eris!
2008-03-19T15:52:22+00:00,199363059,199355481,0,GTBacchus,Wikipedia talk:Ignore all rules,"/* ""Including this one"" */  reply - I can see where you're coming from, but..."
2007-12-16T11:11:30+00:00,178267375,178252604,0,Kim Bruning,Wikipedia talk:Ignore all rules,/* This is nonsense */ where to report
2009-10-20T16:45:39+00:00,321028715,320963280,0,DangerousPanda,Wikipedia talk:Administrators' noticeboard,/* Archive Issues? */ new section
2006-12-12T02:51:11+00:00,93726852,93673226,0,Bkonrad,Wikipedia talk:Ignore all rules,/* Suggested alteration */
2007-07-29T00:25:14+00:00,147756182,147728570,0,Hildanknight,Wikipedia talk:WikiProject Countering systemic bias,/* Your influence */ You'd need to be fairly proficient in Chinese.
2008-07-30T17:01:49+00:00,228840727,228811330,0,Peter jackson,Wikipedia talk:WikiProject Countering systemic bias,/* Misuse of WP:FRINGE */
2010-01-30T21:01:26+00:00,340963396,340961895,0,OBrasilo,Wikipedia talk:WikiProject Countering systemic bias,
2007-03-24T07:01:17+00:00,117473820,117361871,0,Josiah Rowe,Wikipedia talk:WikiProject Countering systemic bias,/* The ubiquity of George W. Bush */ it's partly because US gov't images are PD
2007-05-01T02:23:10+00:00,127321735,126359078,0,Charlene.fic,Wikipedia talk:WikiProject Countering systemic bias,/* Systemic bias within a country */
2007-12-07T14:56:48+00:00,176371097,176370643,0,Victuallers,Wikipedia talk:WikiProject Countering systemic bias,/* Category:Defenders of slavery */ comment
2008-10-01T16:45:00+00:00,242280542,242225320,0,Eklipse,Wikipedia talk:WikiProject Countering systemic bias,/* Article distribution */
2009-08-18T19:07:44+00:00,308736502,308679181,0,Cazort,Wikipedia talk:WikiProject Countering systemic bias,/* Impartiality of review process important in reliability of a journal? */
2006-09-09T10:10:43+00:00,74692716,74692338,0,Asterion,Wikipedia talk:WikiProject Countering systemic bias,/* [[Hideyoshi's invasions of Korea]] */ reply
2008-07-26T14:55:52+00:00,228017464,228009005,0,Enkyo2,Wikipedia talk:WikiProject Countering systemic bias,/* Constructive gambit? */
2007-06-30T01:49:31+00:00,141520001,141512841,0,Yksin,Wikipedia talk:WikiProject Countering systemic bias,"/* Policy against open proxies*/ topic name, signing unsigned"
2007-06-03T23:54:43+00:00,135667423,132102706,0,Dl2000,Wikipedia talk:WikiProject Countering systemic bias,/* Central Standard Time - geobias? */
2007-11-29T12:12:23+00:00,174580814,171096652,0,4u1e,Wikipedia talk:WikiProject Fascism/Archive 4,/* Max Mosley */
2007-04-10T22:28:10+00:00,121795198,121795127,0,Writtenonsand,Wikipedia talk:WikiProject Fascism/Archive 4,/* [[Integralism]] could use clearer definition */
2006-09-10T01:37:20+00:00,74822312,74822178,0,Winhunter,Wikipedia:Administrators' noticeboard/Edit warring,/* [[User:66.25.118.240]] reported by User:[[User:AuburnPilot|AuburnPilot]] (Result:both 24h) */ style
2008-06-02T17:56:47+00:00,216667785,216640174,0,Kurdo777,Wikipedia:Administrators' noticeboard/Edit warring,
2007-04-27T15:27:08+00:00,126405921,126399247,0,68.122.32.237,Wikipedia:Administrators' noticeboard/Edit warring,/* [[User:Perfectblue97]] reported by [[User:Minderbinder]] (Result:) */ 3rr with person's phone number
2006-06-27T03:56:54+00:00,60778122,60777828,0,FeloniousMonk,Wikipedia:Administrators' noticeboard/Edit warring,/* [[User:70.108.115.246]] reported by User:[[User:Will Beback|Will Beback]] */ Blocked for 24
2008-12-02T03:24:33+00:00,255347317,238994391,0,Momoricks,Wikipedia talk:WikiProject Fascism/Archive 4,/* Article assessment request */ new section
2006-08-06T04:16:54+00:00,67944290,67943209,0,Arkon,Wikipedia:Administrators' noticeboard/Edit warring,/* [[User:Ed Poor]] reported by self (Result: recommended 24h by self) */
2010-02-12T23:39:50+00:00,343633227,343623454,0,David Starr 1,Wikipedia:Administrators' noticeboard/Edit warring,/* User Tao2911 */ new section
2007-04-28T03:00:36+00:00,126543604,126543166,0,CINEGroup,Wikipedia:Administrators' noticeboard/Edit warring,/* Violations */
2007-08-12T19:16:40+00:00,150812410,150809555,0,72.142.251.81,Wikipedia:Administrators' noticeboard/Edit warring,/* [[User:GreenJoe]] reported by [[USER:72.142.251.81]] (Result:) */
2008-08-07T06:38:54+00:00,230354585,230354291,0,218.213.226.210,Wikipedia:Administrators' noticeboard/Edit warring,/* Anonymous IP reported by User:Miyokan (Result: Page protected) */
2009-04-20T14:33:32+00:00,285020072,285019445,0,EdJohnston,Wikipedia:Administrators' noticeboard/Edit warring,/* PhilLiberty reported by Soxwon (Result: ) */ Date to allow archiving
2009-02-13T16:54:36+00:00,270473830,270471024,0,Mervyn Emrys,Wikipedia:Administrators' noticeboard/Edit warring,/* Ms. Sarita and Terrillja reported by Mervyn Emrys (Result: Protected) */ Add diff
2008-01-23T15:04:48+00:00,186351723,186351358,0,136.8.152.13,Wikipedia:Administrators' noticeboard/Edit warring,/* User:AMRDeuce reported by User:136.8.152.13  (Result: ) */
2008-10-04T13:04:59+00:00,242956405,242956101,0,Slp1,Wikipedia:Administrators' noticeboard/Edit warring,/* Jlone78 and 220.253.23.184 reported by Caspian blue (Result: ) */ copyedit and add
2007-08-15T12:05:02+00:00,151372286,151362650,0,Jingiby,Wikipedia:Administrators' noticeboard/Edit warring,
2007-04-02T03:40:32+00:00,119641933,119641482,0,WikiLeon,Wikipedia:Administrators' noticeboard/Edit warring,/* [[User:NTjstrf]] reported by [[User:QuackGuru]] (Result:) */ edit headers and name
2009-07-02T18:18:58+00:00,299929982,299927982,0,Supreme Deliciousness,Wikipedia:Administrators' noticeboard/Edit warring,/* User:Arab Cowboy reported by User:Supreme Deliciousness */
2008-11-01T22:16:11+00:00,249073680,249071922,0,This is Paul,Wikipedia:Administrators' noticeboard/Edit warring,/* BBC Radio 2 by TheRetroGuy (result: not by me) */ comment
2009-02-25T18:09:58+00:00,273234615,273225404,0,71.136.250.158,Wikipedia:Administrators' noticeboard/Edit warring,/* Manyanswer reported by Majorly (Result: ) */
2006-07-19T21:20:15+00:00,64734029,64732316,0,Jim62sch,Wikipedia:Administrators' noticeboard/Edit warring,/* [[User:Duncharris]] reported by User:[[User:WaysAndMeans|WaysAndMeans]] (Result:) */ comment
2006-10-29T06:49:34+00:00,84380466,84379135,0,KNM,Wikipedia:Administrators' noticeboard/Edit warring,updated with newer reverts
2009-12-09T05:18:21+00:00,330611681,330601792,0,Moogwrench,Wikipedia:Administrators' noticeboard/Edit warring,/* User:Finrevs */
2009-11-11T07:32:11+00:00,325206223,325205612,0,Drmargi,Wikipedia:Administrators' noticeboard/Edit warring,"/* User:168.115.59.118,  User:168.115.218.89, User:168.115.218.139 reported by User:Drmargi (Result: Page protected ) */ Add new note"
2008-07-06T21:22:25+00:00,223992992,223942261,0,CyberGhostface,Wikipedia:Administrators' noticeboard/Edit warring,/* User: Thaddius reported by User Fragments of Jade (Result: Declined/Malformed ) */
2010-01-06T20:23:38+00:00,336260605,336253154,0,MrOllie,Wikipedia:Administrators' noticeboard/Edit warring,/* User:24.186.76.184  reported by MrOllie (talk) (Result: ) */ 7
2006-05-30T00:14:54+00:00,55830625,55828760,0,Miskin,Wikipedia:Administrators' noticeboard/Edit warring,/* [[User:Miskin]] */
2008-09-09T18:18:08+00:00,237333111,237332329,0,Kahastok,Wikipedia:Administrators' noticeboard/Edit warring,/* Robbo25 reported by Pfainuk (Result: ) */  was just about to correct
2008-12-27T06:59:41+00:00,260292063,260285897,0,Shell Kinney,Wikipedia:Administrators' noticeboard/Edit warring,"/* Oresteia reported by Tb (Result: ) */ blocked, 24 hours"
2006-10-24T17:31:49+00:00,83459886,83454205,0,SteveLamacq43,Wikipedia:Administrators' noticeboard/Edit warring,/* Violations */
2009-12-10T12:58:54+00:00,330861197,330858925,0,RenamedUser jaskldjslak903,Wikipedia:Administrators' noticeboard/Edit warring,/* User:SuaveArt reported by User:The Four Deuces (Result: ) */
2010-01-11T23:39:50+00:00,337280920,337266330,0,Tiptoety,Wikipedia:Administrators' noticeboard/Edit warring,/* User:Smallbones reported by User:Igny (Result: ) */ protected
2008-05-15T03:23:36+00:00,212522055,212472728,0,EdJohnston,Wikipedia:Administrators' noticeboard/Edit warring,/* User:KrytenKoro reported by User:Sesshomaru (Result: Stale. ) */ Agree with the resolution
2006-07-04T18:14:03+00:00,62055948,62054870,0,UCRGrad,Wikipedia:Administrators' noticeboard/Edit warring,/* [[User:Teknosoul02]] reported by User:[[User:UCRGrad|UCRGrad]] (Result:) */
2008-10-19T04:57:47+00:00,246228934,246228639,0,Mike Doughney,Wikipedia:Administrators' noticeboard/Edit warring,/* Forayhoray reported by Mike Doughney (Result: ) */
2007-07-28T00:05:35+00:00,147564069,147562321,0,Steven Walling,Wikipedia:Administrators' noticeboard/Edit warring,/* [[User:Frikkers]] reported by [[User:VanTucky]] (Result:no block) */
2008-10-20T05:30:11+00:00,246440480,246440432,0,Longhair,Wikipedia:Administrators' noticeboard/Edit warring,/* User:Longhair reported by User:BrianBeahr (Result: Reporter blocked ) */ fixing my own typo
2008-01-30T02:40:22+00:00,187840427,187839844,0,75.104.140.74,Wikipedia:Administrators' noticeboard/Edit warring,/* User:Ottava Rima reported by User:Vary (Result: ) */
2010-01-14T18:46:40+00:00,337843630,337812106,0,Fladrif,Wikipedia:Administrators' noticeboard/Edit warring,
2008-06-21T21:51:51+00:00,220843678,220839323,0,Kruško Mortale,Wikipedia:Administrators' noticeboard/Edit warring,/* EXAMPLE */
2009-02-01T20:41:54+00:00,267893396,267891298,0,Marty Rockatansky,Wikipedia:Administrators' noticeboard/Edit warring,
2006-07-21T17:16:10+00:00,65060867,65057193,0,Rex Germanus,Wikipedia:Administrators' noticeboard/Edit warring,/* Report Example */
2009-08-27T03:33:42+00:00,310297683,310258800,0,Lifebaka,Wikipedia:Administrators' noticeboard/Edit warring,/* User:LSG280709 reported by SKATER Speak. (Result: ) */ blocked already
2009-06-03T22:21:06+00:00,294264486,294263383,0,J~enwiki,Wikipedia:Administrators' noticeboard/Edit warring,/* Rerutled reported by J (Result: warned) */ I do agree with you that full protection may be helpful to help a clear consensus develop.
2009-08-07T16:57:06+00:00,306630935,306629875,0,King of Hearts,Wikipedia:Administrators' noticeboard/Edit warring,/* User:Sikh-history reported by User:K.Khokhar (Result: ) */ TW revoked
2006-12-04T02:41:01+00:00,91913542,91857247,0,Spark,Wikipedia:Administrators' noticeboard/Edit warring,/* [[User:NBeale]] reported by User:*Spark* (Result:) */
2009-10-04T19:50:34+00:00,317896621,317894166,0,Sandstein,Wikipedia:Administrators' noticeboard/Edit warring,/* User:Scribner reported by User:J (Result: 1 week) */ r
2009-07-17T02:28:48+00:00,302530019,302514434,0,ZooFari,Wikipedia:Help desk,/* How to use Template:Random portal component */ re
2008-12-13T13:31:31+00:00,257686304,257666756,0,Genius101,Wikipedia:Help desk,/* .js Pages */
2007-03-15T20:17:47+00:00,115391739,115389636,0,Gracenotes,Wikipedia:Help desk,/* What is the [[WP:NOR]] policy on topics with more than one subject? */ perhaps comment
2008-08-31T02:50:51+00:00,235305822,235304352,0,Dismas,Wikipedia:Help desk,/* Colons in links */
2006-07-28T18:48:35+00:00,66393866,66393861,0,Sasquatch,Wikipedia:Help desk,/* Why is my login confirmation rejected repeatedly? */ heh
2007-03-01T21:57:04+00:00,111923620,111914252,0,Skittle,Wikipedia:Help desk,/* No...not my account! */
2009-10-16T14:56:19+00:00,320219685,320216972,0,Codicorumus,Wikipedia:Help desk,"/* Using the ""ref name"" syntax for ""#tag:ref"" notes */ better explanatory text"
2009-11-08T04:31:27+00:00,324587763,324587562,0,Unionhawk,Wikipedia:Help desk,/* Editor Review */ check: 2 months.
2007-03-26T06:08:16+00:00,117934457,117933299,0,41.241.245.190,Wikipedia:Help desk,Johnny Clegg
2008-04-12T04:36:00+00:00,205068550,205066231,0,X42bn6,Wikipedia:Help desk,/* LaTeX */ Proper way
2007-07-22T03:02:46+00:00,146242036,146241203,0,Richardbetts,Wikipedia:Help desk,/* How do u edit page name spelling?*/
2006-07-11T21:18:02+00:00,63297085,63296557,0,Robert A West,Wikipedia:Template index/Sources of articles,/* Requesting sources */ +citecheck
2009-01-07T07:42:28+00:00,262483638,260047563,0,Legobot II,Wikipedia:Template index/Sources of articles,Date maintenance tags and general fixes
2007-05-28T17:34:33+00:00,134116556,134116369,0,Nima Baghaei,Wikipedia:Template index/Sources of articles,/* Requesting sources */
2008-08-08T23:42:25+00:00,230714748,229561964,0,H2g2bob,Wikipedia:Template index/Sources of articles,/* Requesting sources */ +{{english sources}}
2008-07-03T00:07:12+00:00,223194161,223107224,0,Unused0029,Wikipedia:Template index/Sources of articles,/* Requesting sources */  subst: {{tlrow}} as it rmoves the 'article or section' word from the template
2006-05-13T19:37:25+00:00,53039000,50540543,0,NeonMerlin,Wikipedia:Template index/Sources of articles,/* General sources */ Sect1911
2007-07-21T00:18:47+00:00,146031080,146019977,0,Cherry blossom tree,Wikipedia:WikiProject Countering systemic bias,Revert to revision 145431659 dated 2007-07-18 13:24:15 by Nydas using [[:en:Wikipedia:Tools/Navigation_popups|popups]]
2009-04-02T19:17:47+00:00,281345980,277721336,0,CharlesGillingham,Wikipedia:WikiProject Countering systemic bias,/* The bias */  These are two different topics.
2007-10-16T12:52:36+00:00,164941057,158479626,0,Rocket000,Wikipedia:Template index/Sources of articles,/* Requesting sources */ cleanup
2007-06-09T14:28:52+00:00,137043752,132352180,0,91.148.159.4,Wikipedia:WikiProject Countering systemic bias,"avoided a wording that could be interpreted as encouraging OR, tightened up that paragraph"
2008-03-15T23:34:49+00:00,198512149,198329159,0,Schwarze Feder,Wikipedia:WikiProject Countering systemic bias,new link
2010-01-06T17:27:48+00:00,336229067,336227151,0,Doniago,Wikipedia:WikiProject Countering systemic bias,[[WP:UNDO|Undid]] revision 336227151 by [[Special:Contributions/204.102.107.197|204.102.107.197]] ([[User talk:204.102.107.197|talk]]) unexplained removal
2008-10-07T09:51:11+00:00,243619696,243507969,0,Mrzaius,Wikipedia:WikiProject Countering systemic bias,"easier for me to remember and, more importantly, a little more newb friendly than dropping the word ""BIAS"" right off the bat"
2007-08-27T16:02:35+00:00,153972912,153711321,0,Lahiru k,Wikipedia:WikiProject Countering systemic bias,moved
2006-05-27T04:19:38+00:00,55370197,55165356,0,Darkildor,Wikipedia:WikiProject Countering systemic bias,/* The origins of bias */ removed citation needed and heterosexual
2007-01-03T08:19:45+00:00,98135557,98108399,0,M. Dingemanse,Wikipedia:WikiProject Countering systemic bias,"Removing {{fact}}. Please read the talk archives and current talk, we've been through this many times."
2009-04-11T16:20:34+00:00,283197332,281345980,0,78.3.74.15,Wikipedia:WikiProject Countering systemic bias,/* The origins of bias */
2009-07-01T17:16:59+00:00,299724825,297560835,0,Wavelength,Wikipedia:WikiProject Countering systemic bias,/* See also */ adding 1 internal link: * [[Wikipedia:Geographic imbalance]]
2007-08-26T02:16:41+00:00,153663359,147988972,0,Nat,Wikipedia:WikiProject Politics,/* Participants */ adding myself
2010-01-27T16:47:18+00:00,340357755,340066399,0,SWMNPoliSciProject,Wikipedia:WikiProject Politics,
2007-07-30T04:29:23+00:00,147988972,147745018,0,SuperWikiman,Wikipedia:WikiProject Politics,/* Participants */
2008-02-10T19:03:36+00:00,190434304,189479027,0,Fox,Wikipedia:WikiProject Politics,/* Participants */ add
2008-03-21T10:07:18+00:00,199797967,198099528,0,Sickero,Wikipedia:WikiProject Politics/Fascism,/* Participants */
2009-06-16T03:02:41+00:00,296679337,289770997,0,Vanished User 03,Wikipedia:WikiProject Politics/Fascism,/* Stub templates */
2007-03-05T06:01:19+00:00,112750941,109348874,0,NewYork1956,Wikipedia:WikiProject Politics/Fascism,/* Participants */
2007-11-25T17:59:15+00:00,173713115,173712947,0,Die4Dixie,Wikipedia:WikiProject Politics/Fascism,/* Guestbook */
2006-09-20T14:01:31+00:00,76786976,76714150,0,MChew,Wikipedia:WikiProject Politics/Fascism,/* Participants */
2007-10-08T01:38:09+00:00,162991365,162801011,0,Cyclonius,William F. Buckley Jr.,
2007-08-25T16:04:00+00:00,153569702,152997900,0,Maelgwnbot,William F. Buckley Jr.,Bot: Updating template fields
2009-07-13T19:21:12+00:00,301912377,301911834,0,GentlemanGhost,William F. Buckley Jr.,rv - too POV
